ALGO = VeryFast
EDIFF = 1E-5
ENCUT = 500
GGA = PS
ISIF = 2
ISMEAR = 0
ISYM = 0
LCHARG = .FALSE.
LREAL = Auto
LWAVE = .FALSE.
NSW = 0
PREC = Normal
SIGMA = 0.01
SMASS = 0
SYSTEM = GeTe
