GeTe
  1.0000000000000000
    21.8258100000000006   0.0000000000000000   0.0000000000000000
     0.0000000000000000  21.8258100000000006   0.0000000000000000
     0.0000000000000000   0.0000000000000000  21.8258100000000006
   Ge   Te
  192  192
Cartesian
   6.0627199999999997  15.7630800000000004  18.1881699999999995
  15.7630800000000004  18.1881699999999995  13.3379899999999996
  15.7630800000000004   8.4878099999999996  13.3379899999999996
  20.6132600000000004  13.3379899999999996   8.4878099999999996
  15.7630800000000004   8.4878099999999996   1.2125400000000000
  15.7630800000000004  18.1881699999999995  18.1881699999999995
   8.4878099999999996   3.6376300000000001   8.4878099999999996
  10.9129000000000005  13.3379899999999996  13.3379899999999996
   6.0627199999999997   1.2125400000000000  15.7630800000000004
  13.3379899999999996   6.0627199999999997   1.2125400000000000
   6.0627199999999997   6.0627199999999997  13.3379899999999996
  18.1881699999999995   8.4878099999999996   3.6376300000000001
  20.6132600000000004   8.4878099999999996   8.4878099999999996
  18.1881699999999995  10.9129000000000005   6.0627199999999997
   6.0627199999999997   8.4878099999999996  10.9129000000000005
  10.9129000000000005  18.1881699999999995  10.9129000000000005
   1.2125400000000000  13.3379899999999996   1.2125400000000000
  20.6132600000000004   1.2125400000000000  10.9129000000000005
   3.6376300000000001  15.7630800000000004   3.6376300000000001
   8.4878099999999996   8.4878099999999996  10.9129000000000005
  13.3379899999999996   8.4878099999999996   1.2125400000000000
  18.1881699999999995   3.6376300000000001  15.7630800000000004
   6.0627199999999997  10.9129000000000005  10.9129000000000005
   6.0627199999999997   1.2125400000000000   6.0627199999999997
   8.4878099999999996  13.3379899999999996   1.2125400000000000
  18.1881699999999995  18.1881699999999995   1.2125400000000000
  10.9129000000000005   6.0627199999999997   1.2125400000000000
  15.7630800000000004  10.9129000000000005  18.1881699999999995
  20.6132600000000004  10.9129000000000005  13.3379899999999996
   3.6376300000000001  10.9129000000000005   8.4878099999999996
  15.7630800000000004  13.3379899999999996   3.6376300000000001
   6.0627199999999997  13.3379899999999996   6.0627199999999997
  20.6132600000000004  10.9129000000000005   3.6376300000000001
  18.1881699999999995   1.2125400000000000   8.4878099999999996
  20.6132600000000004  15.7630800000000004   6.0627199999999997
  20.6132600000000004  18.1881699999999995   6.0627199999999997
   8.4878099999999996  13.3379899999999996   3.6376300000000001
   1.2125400000000000  18.1881699999999995   1.2125400000000000
   1.2125400000000000   6.0627199999999997  13.3379899999999996
  13.3379899999999996   8.4878099999999996   6.0627199999999997
   1.2125400000000000   3.6376300000000001   6.0627199999999997
  13.3379899999999996  15.7630800000000004   8.4878099999999996
  10.9129000000000005  18.1881699999999995  20.6132600000000004
  10.9129000000000005   8.4878099999999996   1.2125400000000000
   3.6376300000000001   1.2125400000000000  20.6132600000000004
   6.0627199999999997  15.7630800000000004   1.2125400000000000
  20.6132600000000004   6.0627199999999997   3.6376300000000001
   1.2125400000000000   3.6376300000000001  10.9129000000000005
  10.9129000000000005   6.0627199999999997  20.6132600000000004
   3.6376300000000001  10.9129000000000005  10.9129000000000005
  10.9129000000000005  18.1881699999999995  18.1881699999999995
   3.6376300000000001  15.7630800000000004  13.3379899999999996
  20.6132600000000004   6.0627199999999997  20.6132600000000004
   6.0627199999999997  10.9129000000000005  18.1881699999999995
  18.1881699999999995  10.9129000000000005  18.1881699999999995
   6.0627199999999997  13.3379899999999996  20.6132600000000004
  13.3379899999999996  18.1881699999999995   1.2125400000000000
   6.0627199999999997   1.2125400000000000   8.4878099999999996
   8.4878099999999996  13.3379899999999996   6.0627199999999997
   6.0627199999999997  18.1881699999999995   1.2125400000000000
  15.7630800000000004  15.7630800000000004   3.6376300000000001
   3.6376300000000001  15.7630800000000004  10.9129000000000005
  13.3379899999999996   3.6376300000000001  13.3379899999999996
  18.1881699999999995  18.1881699999999995  20.6132600000000004
  13.3379899999999996  15.7630800000000004   6.0627199999999997
   6.0627199999999997  13.3379899999999996   1.2125400000000000
   6.0627199999999997  10.9129000000000005   3.6376300000000001
   8.4878099999999996   1.2125400000000000   3.6376300000000001
  18.1881699999999995   3.6376300000000001   6.0627199999999997
  10.9129000000000005   6.0627199999999997  15.7630800000000004
   8.4878099999999996   1.2125400000000000  15.7630800000000004
  13.3379899999999996   3.6376300000000001  15.7630800000000004
  15.7630800000000004   1.2125400000000000   3.6376300000000001
  10.9129000000000005  15.7630800000000004  13.3379899999999996
  15.7630800000000004  20.6132600000000004   1.2125400000000000
  20.6132600000000004   8.4878099999999996  20.6132600000000004
  13.3379899999999996   1.2125400000000000   1.2125400000000000
  15.7630800000000004   1.2125400000000000  20.6132600000000004
   8.4878099999999996   8.4878099999999996   3.6376300000000001
   1.2125400000000000   1.2125400000000000   1.2125400000000000
  18.1881699999999995  13.3379899999999996   1.2125400000000000
  13.3379899999999996   3.6376300000000001   6.0627199999999997
   6.0627199999999997  15.7630800000000004  13.3379899999999996
   1.2125400000000000  10.9129000000000005  13.3379899999999996
   3.6376300000000001   8.4878099999999996  20.6132600000000004
   3.6376300000000001   3.6376300000000001  18.1881699999999995
  15.7630800000000004   1.2125400000000000   8.4878099999999996
   6.0627199999999997  18.1881699999999995   8.4878099999999996
  18.1881699999999995   3.6376300000000001   1.2125400000000000
  15.7630800000000004  20.6132600000000004  15.7630800000000004
  15.7630800000000004   8.4878099999999996  20.6132600000000004
   8.4878099999999996  13.3379899999999996  13.3379899999999996
   1.2125400000000000  15.7630800000000004  15.7630800000000004
   1.2125400000000000   8.4878099999999996   8.4878099999999996
  20.6132600000000004  15.7630800000000004  18.1881699999999995
  20.6132600000000004  13.3379899999999996   3.6376300000000001
   3.6376300000000001  18.1881699999999995  20.6132600000000004
  15.7630800000000004  20.6132600000000004  13.3379899999999996
   3.6376300000000001  20.6132600000000004  13.3379899999999996
   3.6376300000000001   1.2125400000000000   6.0627199999999997
  15.7630800000000004   8.4878099999999996  10.9129000000000005
  10.9129000000000005  10.9129000000000005  15.7630800000000004
   1.2125400000000000  13.3379899999999996  15.7630800000000004
   3.6376300000000001   6.0627199999999997   1.2125400000000000
   3.6376300000000001  20.6132600000000004   6.0627199999999997
  20.6132600000000004   1.2125400000000000  18.1881699999999995
  13.3379899999999996   8.4878099999999996  20.6132600000000004
  20.6132600000000004  18.1881699999999995   8.4878099999999996
  20.6132600000000004  10.9129000000000005  10.9129000000000005
   6.0627199999999997   8.4878099999999996   3.6376300000000001
  13.3379899999999996  13.3379899999999996  10.9129000000000005
  13.3379899999999996  13.3379899999999996   8.4878099999999996
   3.6376300000000001   3.6376300000000001  10.9129000000000005
  18.1881699999999995  13.3379899999999996  20.6132600000000004
  20.6132600000000004   6.0627199999999997  18.1881699999999995
  20.6132600000000004  13.3379899999999996   1.2125400000000000
   1.2125400000000000  15.7630800000000004  20.6132600000000004
   8.4878099999999996  15.7630800000000004  15.7630800000000004
   1.2125400000000000   1.2125400000000000   8.4878099999999996
   6.0627199999999997  13.3379899999999996   8.4878099999999996
  20.6132600000000004  18.1881699999999995  15.7630800000000004
  10.9129000000000005  20.6132600000000004  10.9129000000000005
  10.9129000000000005  10.9129000000000005   3.6376300000000001
   6.0627199999999997  18.1881699999999995  18.1881699999999995
   8.4878099999999996   8.4878099999999996  18.1881699999999995
  18.1881699999999995  18.1881699999999995  13.3379899999999996
  18.1881699999999995  18.1881699999999995   8.4878099999999996
   1.2125400000000000   8.4878099999999996  15.7630800000000004
  13.3379899999999996  20.6132600000000004   8.4878099999999996
  20.6132600000000004   1.2125400000000000   3.6376300000000001
  10.9129000000000005   8.4878099999999996  20.6132600000000004
  20.6132600000000004  15.7630800000000004  13.3379899999999996
   8.4878099999999996   3.6376300000000001  18.1881699999999995
   3.6376300000000001   3.6376300000000001   6.0627199999999997
  18.1881699999999995  15.7630800000000004   8.4878099999999996
   8.4878099999999996  18.1881699999999995  10.9129000000000005
  18.1881699999999995   3.6376300000000001   3.6376300000000001
  18.1881699999999995   6.0627199999999997  20.6132600000000004
  15.7630800000000004   3.6376300000000001  18.1881699999999995
   1.2125400000000000  15.7630800000000004   8.4878099999999996
  13.3379899999999996  18.1881699999999995   6.0627199999999997
  20.6132600000000004  20.6132600000000004   3.6376300000000001
  15.7630800000000004  20.6132600000000004   6.0627199999999997
  20.6132600000000004  13.3379899999999996   6.0627199999999997
   1.2125400000000000   6.0627199999999997   1.2125400000000000
   8.4878099999999996   6.0627199999999997   3.6376300000000001
   3.6376300000000001   8.4878099999999996   1.2125400000000000
  15.7630800000000004   6.0627199999999997   6.0627199999999997
  10.9129000000000005  15.7630800000000004   3.6376300000000001
  20.6132600000000004  10.9129000000000005  20.6132600000000004
  18.1881699999999995  10.9129000000000005   8.4878099999999996
  10.9129000000000005  15.7630800000000004   8.4878099999999996
   1.2125400000000000  20.6132600000000004  13.3379899999999996
   6.0627199999999997   1.2125400000000000  13.3379899999999996
   8.4878099999999996  13.3379899999999996   8.4878099999999996
  10.9129000000000005   3.6376300000000001  15.7630800000000004
   6.0627199999999997  20.6132600000000004  13.3379899999999996
  18.1881699999999995  18.1881699999999995  18.1881699999999995
  20.6132600000000004  20.6132600000000004   8.4878099999999996
  18.1881699999999995  15.7630800000000004   6.0627199999999997
   3.6376300000000001   6.0627199999999997  10.9129000000000005
   1.2125400000000000   1.2125400000000000   6.0627199999999997
   8.4878099999999996  10.9129000000000005  15.7630800000000004
  18.1881699999999995  15.7630800000000004   3.6376300000000001
  13.3379899999999996  18.1881699999999995  18.1881699999999995
  15.7630800000000004   3.6376300000000001  15.7630800000000004
   8.4878099999999996  10.9129000000000005  18.1881699999999995
  13.3379899999999996   8.4878099999999996  18.1881699999999995
   6.0627199999999997   1.2125400000000000  20.6132600000000004
  18.1881699999999995   8.4878099999999996  15.7630800000000004
   8.4878099999999996   8.4878099999999996  20.6132600000000004
   3.6376300000000001  20.6132600000000004   8.4878099999999996
   6.0627199999999997  15.7630800000000004   8.4878099999999996
   1.2125400000000000  20.6132600000000004   1.2125400000000000
  20.6132600000000004   3.6376300000000001   1.2125400000000000
   1.2125400000000000   8.4878099999999996   1.2125400000000000
  15.7630800000000004   3.6376300000000001   8.4878099999999996
  18.1881699999999995  13.3379899999999996  13.3379899999999996
  20.6132600000000004   1.2125400000000000  15.7630800000000004
  15.7630800000000004  15.7630800000000004   6.0627199999999997
  18.1881699999999995   8.4878099999999996  10.9129000000000005
  10.9129000000000005  20.6132600000000004  13.3379899999999996
  15.7630800000000004   6.0627199999999997  13.3379899999999996
   1.2125400000000000  20.6132600000000004   8.4878099999999996
  10.9129000000000005  10.9129000000000005   8.4878099999999996
   3.6376300000000001  13.3379899999999996  10.9129000000000005
   8.4878099999999996   3.6376300000000001  20.6132600000000004
  13.3379899999999996  20.6132600000000004  18.1881699999999995
   1.2125400000000000  20.6132600000000004  10.9129000000000005
   8.4878099999999996  15.7630800000000004  18.1881699999999995
   8.4878099999999996  15.7630800000000004  13.3379899999999996
   1.2125400000000000   6.0627199999999997   6.0627199999999997
  18.1881699999999995   6.0627199999999997  18.1881699999999995
   1.2125400000000000   1.2125400000000000  13.3379899999999996
  18.1881699999999995  10.9129000000000005  15.7630800000000004
  18.1881699999999995   8.4878099999999996   8.4878099999999996
  13.3379899999999996  10.9129000000000005  20.6132600000000004
   3.6376300000000001  18.1881699999999995  13.3379899999999996
   1.2125400000000000  13.3379899999999996  13.3379899999999996
  10.9129000000000005   6.0627199999999997   3.6376300000000001
  18.1881699999999995   6.0627199999999997   6.0627199999999997
   3.6376300000000001  15.7630800000000004  15.7630800000000004
  15.7630800000000004   1.2125400000000000  13.3379899999999996
   6.0627199999999997  15.7630800000000004   3.6376300000000001
  18.1881699999999995   6.0627199999999997   3.6376300000000001
  10.9129000000000005   6.0627199999999997  18.1881699999999995
  18.1881699999999995   8.4878099999999996   1.2125400000000000
   8.4878099999999996   3.6376300000000001  15.7630800000000004
   8.4878099999999996   1.2125400000000000   8.4878099999999996
   8.4878099999999996  13.3379899999999996  20.6132600000000004
  10.9129000000000005   1.2125400000000000   3.6376300000000001
   3.6376300000000001   6.0627199999999997  20.6132600000000004
   6.0627199999999997   8.4878099999999996  15.7630800000000004
  15.7630800000000004  13.3379899999999996   1.2125400000000000
   3.6376300000000001  18.1881699999999995  15.7630800000000004
  20.6132600000000004  10.9129000000000005   1.2125400000000000
   1.2125400000000000   6.0627199999999997  20.6132600000000004
   3.6376300000000001  10.9129000000000005  15.7630800000000004
  20.6132600000000004  10.9129000000000005   6.0627199999999997
  15.7630800000000004  13.3379899999999996  15.7630800000000004
  20.6132600000000004   3.6376300000000001  18.1881699999999995
   6.0627199999999997  13.3379899999999996  10.9129000000000005
  20.6132600000000004  18.1881699999999995  20.6132600000000004
   3.6376300000000001  13.3379899999999996  20.6132600000000004
   1.2125400000000000  13.3379899999999996  10.9129000000000005
   6.0627199999999997   8.4878099999999996   8.4878099999999996
   1.2125400000000000  10.9129000000000005   6.0627199999999997
  10.9129000000000005   8.4878099999999996  18.1881699999999995
  15.7630800000000004   6.0627199999999997  18.1881699999999995
  10.9129000000000005  18.1881699999999995   8.4878099999999996
   6.0627199999999997   8.4878099999999996   6.0627199999999997
  13.3379899999999996   8.4878099999999996  15.7630800000000004
   6.0627199999999997   6.0627199999999997   1.2125400000000000
  15.7630800000000004  10.9129000000000005   8.4878099999999996
  10.9129000000000005  20.6132600000000004  15.7630800000000004
  18.1881699999999995  18.1881699999999995   6.0627199999999997
  10.9129000000000005  10.9129000000000005  20.6132600000000004
   6.0627199999999997   3.6376300000000001  15.7630800000000004
   1.2125400000000000  13.3379899999999996   6.0627199999999997
  18.1881699999999995  20.6132600000000004  15.7630800000000004
   3.6376300000000001  20.6132600000000004  10.9129000000000005
   6.0627199999999997  18.1881699999999995  20.6132600000000004
   8.4878099999999996  15.7630800000000004  20.6132600000000004
  10.9129000000000005  15.7630800000000004  20.6132600000000004
  20.6132600000000004  10.9129000000000005  18.1881699999999995
   8.4878099999999996  18.1881699999999995  18.1881699999999995
  13.3379899999999996   3.6376300000000001  20.6132600000000004
   3.6376300000000001  18.1881699999999995  10.9129000000000005
   8.4878099999999996  10.9129000000000005   3.6376300000000001
  18.1881699999999995  10.9129000000000005  13.3379899999999996
  13.3379899999999996  13.3379899999999996   6.0627199999999997
   1.2125400000000000  18.1881699999999995  10.9129000000000005
  20.6132600000000004   3.6376300000000001  20.6132600000000004
  10.9129000000000005   8.4878099999999996  10.9129000000000005
  20.6132600000000004   3.6376300000000001   8.4878099999999996
   3.6376300000000001   8.4878099999999996  15.7630800000000004
   6.0627199999999997   1.2125400000000000   3.6376300000000001
   3.6376300000000001  13.3379899999999996  18.1881699999999995
  20.6132600000000004  18.1881699999999995   3.6376300000000001
   6.0627199999999997  20.6132600000000004  20.6132600000000004
  20.6132600000000004   6.0627199999999997  13.3379899999999996
  13.3379899999999996  20.6132600000000004  13.3379899999999996
  20.6132600000000004  18.1881699999999995   1.2125400000000000
   6.0627199999999997  18.1881699999999995  13.3379899999999996
  13.3379899999999996   6.0627199999999997  15.7630800000000004
  15.7630800000000004  18.1881699999999995   6.0627199999999997
   6.0627199999999997  18.1881699999999995   3.6376300000000001
  15.7630800000000004  10.9129000000000005   1.2125400000000000
  13.3379899999999996  15.7630800000000004  15.7630800000000004
  20.6132600000000004   6.0627199999999997   8.4878099999999996
   3.6376300000000001   8.4878099999999996  18.1881699999999995
  13.3379899999999996  10.9129000000000005   3.6376300000000001
   8.4878099999999996   1.2125400000000000  18.1881699999999995
  20.6132600000000004   8.4878099999999996   6.0627199999999997
  10.9129000000000005   8.4878099999999996   8.4878099999999996
   3.6376300000000001  13.3379899999999996  15.7630800000000004
  15.7630800000000004   6.0627199999999997   8.4878099999999996
  20.6132600000000004   3.6376300000000001  10.9129000000000005
  18.1881699999999995  10.9129000000000005  20.6132600000000004
   6.0627199999999997  18.1881699999999995  15.7630800000000004
  18.1881699999999995  20.6132600000000004   3.6376300000000001
   8.4878099999999996  18.1881699999999995  15.7630800000000004
   6.0627199999999997  10.9129000000000005   6.0627199999999997
  15.7630800000000004  15.7630800000000004  10.9129000000000005
  20.6132600000000004  18.1881699999999995  13.3379899999999996
  18.1881699999999995  13.3379899999999996  15.7630800000000004
  18.1881699999999995  20.6132600000000004  18.1881699999999995
   1.2125400000000000  13.3379899999999996   8.4878099999999996
  18.1881699999999995  20.6132600000000004  20.6132600000000004
  15.7630800000000004   6.0627199999999997  10.9129000000000005
   3.6376300000000001   8.4878099999999996   6.0627199999999997
  13.3379899999999996   3.6376300000000001   1.2125400000000000
   3.6376300000000001  13.3379899999999996   3.6376300000000001
   8.4878099999999996  20.6132600000000004  13.3379899999999996
  10.9129000000000005  18.1881699999999995  15.7630800000000004
  18.1881699999999995  20.6132600000000004  10.9129000000000005
  13.3379899999999996   6.0627199999999997   3.6376300000000001
   1.2125400000000000   8.4878099999999996   3.6376300000000001
  10.9129000000000005  10.9129000000000005  13.3379899999999996
   3.6376300000000001   3.6376300000000001  13.3379899999999996
   6.0627199999999997  15.7630800000000004   6.0627199999999997
  13.3379899999999996  15.7630800000000004   3.6376300000000001
  10.9129000000000005  10.9129000000000005   6.0627199999999997
   3.6376300000000001   6.0627199999999997  18.1881699999999995
  13.3379899999999996  10.9129000000000005  15.7630800000000004
   1.2125400000000000  10.9129000000000005  15.7630800000000004
  18.1881699999999995  13.3379899999999996  18.1881699999999995
  18.1881699999999995  10.9129000000000005   1.2125400000000000
  18.1881699999999995  15.7630800000000004  10.9129000000000005
   6.0627199999999997  20.6132600000000004  10.9129000000000005
   3.6376300000000001  20.6132600000000004   3.6376300000000001
  15.7630800000000004  13.3379899999999996  13.3379899999999996
  18.1881699999999995  13.3379899999999996  10.9129000000000005
   6.0627199999999997  10.9129000000000005  15.7630800000000004
  13.3379899999999996   1.2125400000000000  18.1881699999999995
   3.6376300000000001   3.6376300000000001  20.6132600000000004
  13.3379899999999996   1.2125400000000000  13.3379899999999996
  20.6132600000000004   1.2125400000000000   6.0627199999999997
   3.6376300000000001  10.9129000000000005   1.2125400000000000
  15.7630800000000004  18.1881699999999995  10.9129000000000005
   1.2125400000000000  18.1881699999999995  20.6132600000000004
   3.6376300000000001  18.1881699999999995   6.0627199999999997
   6.0627199999999997   1.2125400000000000  10.9129000000000005
  20.6132600000000004   6.0627199999999997  15.7630800000000004
  20.6132600000000004   8.4878099999999996  10.9129000000000005
  18.1881699999999995   3.6376300000000001   8.4878099999999996
  10.9129000000000005  15.7630800000000004  15.7630800000000004
   6.0627199999999997  20.6132600000000004  15.7630800000000004
   8.4878099999999996  10.9129000000000005  10.9129000000000005
  15.7630800000000004  10.9129000000000005  10.9129000000000005
   8.4878099999999996   8.4878099999999996  13.3379899999999996
   3.6376300000000001  20.6132600000000004  18.1881699999999995
   6.0627199999999997  20.6132600000000004   1.2125400000000000
  15.7630800000000004  18.1881699999999995  15.7630800000000004
  10.9129000000000005   8.4878099999999996  13.3379899999999996
  10.9129000000000005   6.0627199999999997   6.0627199999999997
  18.1881699999999995  15.7630800000000004   1.2125400000000000
   1.2125400000000000  20.6132600000000004   6.0627199999999997
   3.6376300000000001   3.6376300000000001   1.2125400000000000
  20.6132600000000004   3.6376300000000001  13.3379899999999996
   1.2125400000000000  20.6132600000000004  20.6132600000000004
  10.9129000000000005  15.7630800000000004   1.2125400000000000
  10.9129000000000005   6.0627199999999997   8.4878099999999996
  13.3379899999999996  10.9129000000000005  13.3379899999999996
  10.9129000000000005  13.3379899999999996   1.2125400000000000
  15.7630800000000004   8.4878099999999996   3.6376300000000001
   8.4878099999999996   6.0627199999999997  10.9129000000000005
   8.4878099999999996   8.4878099999999996   8.4878099999999996
  10.9129000000000005  20.6132600000000004   6.0627199999999997
  20.6132600000000004   3.6376300000000001   3.6376300000000001
   1.2125400000000000  18.1881699999999995  13.3379899999999996
   8.4878099999999996   6.0627199999999997   6.0627199999999997
   1.2125400000000000   6.0627199999999997  10.9129000000000005
  13.3379899999999996  18.1881699999999995  15.7630800000000004
   3.6376300000000001   6.0627199999999997  13.3379899999999996
   1.2125400000000000   6.0627199999999997   3.6376300000000001
  13.3379899999999996   1.2125400000000000   3.6376300000000001
   8.4878099999999996  15.7630800000000004   1.2125400000000000
   8.4878099999999996   1.2125400000000000   1.2125400000000000
  15.7630800000000004  10.9129000000000005   3.6376300000000001
  10.9129000000000005   1.2125400000000000  10.9129000000000005
  20.6132600000000004  13.3379899999999996  20.6132600000000004
   8.4878099999999996   6.0627199999999997  13.3379899999999996
   3.6376300000000001  15.7630800000000004   8.4878099999999996
   6.0627199999999997   6.0627199999999997   8.4878099999999996
   1.2125400000000000  15.7630800000000004   1.2125400000000000
  10.9129000000000005  18.1881699999999995   3.6376300000000001
  15.7630800000000004  10.9129000000000005  13.3379899999999996
   8.4878099999999996  20.6132600000000004   6.0627199999999997
  18.1881699999999995   1.2125400000000000   6.0627199999999997
  10.9129000000000005  13.3379899999999996   3.6376300000000001
  10.9129000000000005   1.2125400000000000  18.1881699999999995
  13.3379899999999996   8.4878099999999996   8.4878099999999996
   1.2125400000000000   3.6376300000000001   1.2125400000000000
   8.4878099999999996   1.2125400000000000  20.6132600000000004
  13.3379899999999996   1.2125400000000000  10.9129000000000005
  18.1881699999999995   1.2125400000000000  18.1881699999999995
   1.2125400000000000   6.0627199999999997   8.4878099999999996
   8.4878099999999996  13.3379899999999996  18.1881699999999995
   3.6376300000000001   1.2125400000000000  15.7630800000000004
  13.3379899999999996   6.0627199999999997  18.1881699999999995
  13.3379899999999996  13.3379899999999996   3.6376300000000001
   1.2125400000000000   3.6376300000000001   8.4878099999999996
   1.2125400000000000   3.6376300000000001  13.3379899999999996
