GeTe
  1.0000000000000000
    25.8773599999999995   0.0000000000000000   0.0000000000000000
     0.0000000000000000  25.8773599999999995   0.0000000000000000
     0.0000000000000000   0.0000000000000000  25.8773599999999995
   Ge   Te
  320  320
Cartesian
   1.2938700000000001  11.6448099999999997  19.4080200000000005
  21.9957500000000010   9.0570799999999991   9.0570799999999991
   9.0570799999999991  21.9957500000000010   3.8816000000000002
  24.5834900000000012   6.4693399999999999   3.8816000000000002
  19.4080200000000005  24.5834900000000012  24.5834900000000012
  21.9957500000000010  19.4080200000000005  24.5834900000000012
  14.2325499999999998  24.5834900000000012  16.8202800000000003
   9.0570799999999991   6.4693399999999999   3.8816000000000002
  16.8202800000000003  21.9957500000000010  16.8202800000000003
  24.5834900000000012  21.9957500000000010   3.8816000000000002
  21.9957500000000010  24.5834900000000012  14.2325499999999998
  11.6448099999999997   3.8816000000000002   9.0570799999999991
   9.0570799999999991  21.9957500000000010   9.0570799999999991
   6.4693399999999999   1.2938700000000001  19.4080200000000005
   6.4693399999999999  21.9957500000000010   1.2938700000000001
   3.8816000000000002  21.9957500000000010  24.5834900000000012
   6.4693399999999999  21.9957500000000010  24.5834900000000012
  24.5834900000000012   6.4693399999999999   9.0570799999999991
   3.8816000000000002  16.8202800000000003   6.4693399999999999
  19.4080200000000005  19.4080200000000005   6.4693399999999999
  14.2325499999999998   1.2938700000000001   6.4693399999999999
  19.4080200000000005   9.0570799999999991  11.6448099999999997
  24.5834900000000012   9.0570799999999991   6.4693399999999999
  11.6448099999999997  11.6448099999999997  19.4080200000000005
  14.2325499999999998   1.2938700000000001  21.9957500000000010
  16.8202800000000003  16.8202800000000003  19.4080200000000005
  21.9957500000000010  11.6448099999999997   6.4693399999999999
   1.2938700000000001  19.4080200000000005   6.4693399999999999
   1.2938700000000001  11.6448099999999997   9.0570799999999991
  16.8202800000000003  21.9957500000000010  14.2325499999999998
  19.4080200000000005   3.8816000000000002  14.2325499999999998
  19.4080200000000005   3.8816000000000002  21.9957500000000010
  16.8202800000000003   6.4693399999999999  24.5834900000000012
   9.0570799999999991  14.2325499999999998   6.4693399999999999
  24.5834900000000012  24.5834900000000012  19.4080200000000005
   3.8816000000000002   1.2938700000000001  16.8202800000000003
   1.2938700000000001  24.5834900000000012   6.4693399999999999
  24.5834900000000012   9.0570799999999991  14.2325499999999998
  21.9957500000000010   9.0570799999999991  24.5834900000000012
  24.5834900000000012  14.2325499999999998  21.9957500000000010
  16.8202800000000003  11.6448099999999997  19.4080200000000005
   6.4693399999999999   1.2938700000000001   6.4693399999999999
   9.0570799999999991  24.5834900000000012  19.4080200000000005
  16.8202800000000003  21.9957500000000010   9.0570799999999991
  21.9957500000000010   3.8816000000000002   6.4693399999999999
   1.2938700000000001   9.0570799999999991  11.6448099999999997
   1.2938700000000001  19.4080200000000005  14.2325499999999998
   6.4693399999999999  16.8202800000000003   9.0570799999999991
   6.4693399999999999  21.9957500000000010   9.0570799999999991
   6.4693399999999999  21.9957500000000010  19.4080200000000005
  19.4080200000000005   1.2938700000000001  19.4080200000000005
   3.8816000000000002   3.8816000000000002  21.9957500000000010
  16.8202800000000003   6.4693399999999999   6.4693399999999999
   1.2938700000000001  24.5834900000000012   3.8816000000000002
  19.4080200000000005   6.4693399999999999   6.4693399999999999
  11.6448099999999997   3.8816000000000002  24.5834900000000012
  11.6448099999999997   9.0570799999999991  16.8202800000000003
  14.2325499999999998  16.8202800000000003  16.8202800000000003
   3.8816000000000002   1.2938700000000001  24.5834900000000012
   1.2938700000000001  11.6448099999999997   6.4693399999999999
  16.8202800000000003  19.4080200000000005  16.8202800000000003
  14.2325499999999998   1.2938700000000001  14.2325499999999998
  24.5834900000000012  11.6448099999999997   6.4693399999999999
   6.4693399999999999   6.4693399999999999   6.4693399999999999
  14.2325499999999998  14.2325499999999998   9.0570799999999991
   6.4693399999999999  19.4080200000000005  14.2325499999999998
   1.2938700000000001  19.4080200000000005  11.6448099999999997
  21.9957500000000010  16.8202800000000003   9.0570799999999991
   6.4693399999999999  11.6448099999999997  11.6448099999999997
  14.2325499999999998   3.8816000000000002   9.0570799999999991
   1.2938700000000001   3.8816000000000002  19.4080200000000005
   9.0570799999999991   6.4693399999999999  24.5834900000000012
  21.9957500000000010  19.4080200000000005  16.8202800000000003
  16.8202800000000003  21.9957500000000010  19.4080200000000005
   9.0570799999999991  24.5834900000000012   9.0570799999999991
  16.8202800000000003   3.8816000000000002  16.8202800000000003
  24.5834900000000012   9.0570799999999991  24.5834900000000012
  16.8202800000000003   9.0570799999999991  21.9957500000000010
  21.9957500000000010   3.8816000000000002  16.8202800000000003
   3.8816000000000002  21.9957500000000010   3.8816000000000002
   1.2938700000000001   6.4693399999999999  21.9957500000000010
   6.4693399999999999   1.2938700000000001   3.8816000000000002
   6.4693399999999999  16.8202800000000003   3.8816000000000002
  21.9957500000000010  21.9957500000000010   9.0570799999999991
   3.8816000000000002  21.9957500000000010   9.0570799999999991
   1.2938700000000001   9.0570799999999991   9.0570799999999991
  21.9957500000000010   6.4693399999999999  19.4080200000000005
  24.5834900000000012   3.8816000000000002  24.5834900000000012
  11.6448099999999997   1.2938700000000001   9.0570799999999991
  21.9957500000000010   1.2938700000000001   9.0570799999999991
  11.6448099999999997  14.2325499999999998  11.6448099999999997
  16.8202800000000003  16.8202800000000003  24.5834900000000012
  19.4080200000000005  14.2325499999999998   3.8816000000000002
  24.5834900000000012  11.6448099999999997  19.4080200000000005
  24.5834900000000012   9.0570799999999991   9.0570799999999991
   1.2938700000000001  14.2325499999999998  24.5834900000000012
  24.5834900000000012  14.2325499999999998   9.0570799999999991
  24.5834900000000012  14.2325499999999998   6.4693399999999999
  16.8202800000000003  11.6448099999999997   3.8816000000000002
  24.5834900000000012  16.8202800000000003   1.2938700000000001
   1.2938700000000001   3.8816000000000002   6.4693399999999999
  24.5834900000000012  24.5834900000000012  24.5834900000000012
   1.2938700000000001  16.8202800000000003  14.2325499999999998
   9.0570799999999991  14.2325499999999998  14.2325499999999998
  19.4080200000000005  14.2325499999999998  19.4080200000000005
   3.8816000000000002  21.9957500000000010  14.2325499999999998
   1.2938700000000001  21.9957500000000010   9.0570799999999991
  21.9957500000000010  19.4080200000000005  19.4080200000000005
   1.2938700000000001   1.2938700000000001  16.8202800000000003
   9.0570799999999991   3.8816000000000002   1.2938700000000001
  24.5834900000000012   1.2938700000000001   3.8816000000000002
  19.4080200000000005  14.2325499999999998  11.6448099999999997
  16.8202800000000003   3.8816000000000002  24.5834900000000012
  21.9957500000000010   6.4693399999999999  24.5834900000000012
  24.5834900000000012  19.4080200000000005  21.9957500000000010
  14.2325499999999998  11.6448099999999997   3.8816000000000002
  16.8202800000000003  16.8202800000000003   6.4693399999999999
  14.2325499999999998  21.9957500000000010  19.4080200000000005
  19.4080200000000005  14.2325499999999998   9.0570799999999991
  24.5834900000000012   3.8816000000000002  21.9957500000000010
  14.2325499999999998   6.4693399999999999   6.4693399999999999
   1.2938700000000001   3.8816000000000002  24.5834900000000012
  19.4080200000000005  11.6448099999999997  14.2325499999999998
   6.4693399999999999   9.0570799999999991   6.4693399999999999
   3.8816000000000002   6.4693399999999999   3.8816000000000002
  21.9957500000000010   1.2938700000000001   3.8816000000000002
   9.0570799999999991  21.9957500000000010  16.8202800000000003
   1.2938700000000001   6.4693399999999999  24.5834900000000012
  19.4080200000000005  11.6448099999999997  24.5834900000000012
   6.4693399999999999   9.0570799999999991   1.2938700000000001
   1.2938700000000001   9.0570799999999991   3.8816000000000002
  14.2325499999999998  19.4080200000000005  24.5834900000000012
   3.8816000000000002   9.0570799999999991   1.2938700000000001
  11.6448099999999997   6.4693399999999999   9.0570799999999991
  11.6448099999999997  11.6448099999999997  14.2325499999999998
  21.9957500000000010   3.8816000000000002  14.2325499999999998
  14.2325499999999998  14.2325499999999998   6.4693399999999999
  11.6448099999999997  21.9957500000000010  16.8202800000000003
  14.2325499999999998  11.6448099999999997  11.6448099999999997
  21.9957500000000010  16.8202800000000003  19.4080200000000005
   3.8816000000000002  21.9957500000000010  11.6448099999999997
   3.8816000000000002   3.8816000000000002  11.6448099999999997
  24.5834900000000012  21.9957500000000010   1.2938700000000001
  16.8202800000000003   1.2938700000000001   1.2938700000000001
   6.4693399999999999  24.5834900000000012   6.4693399999999999
   6.4693399999999999  24.5834900000000012   9.0570799999999991
  24.5834900000000012  21.9957500000000010   6.4693399999999999
  24.5834900000000012  21.9957500000000010  21.9957500000000010
  24.5834900000000012  24.5834900000000012   9.0570799999999991
  11.6448099999999997  16.8202800000000003   9.0570799999999991
  11.6448099999999997   9.0570799999999991  21.9957500000000010
   1.2938700000000001   3.8816000000000002   9.0570799999999991
  11.6448099999999997   1.2938700000000001   6.4693399999999999
  19.4080200000000005   6.4693399999999999  21.9957500000000010
  24.5834900000000012   9.0570799999999991  19.4080200000000005
   9.0570799999999991  16.8202800000000003  19.4080200000000005
   6.4693399999999999   3.8816000000000002  21.9957500000000010
  14.2325499999999998   3.8816000000000002  16.8202800000000003
   3.8816000000000002  16.8202800000000003  19.4080200000000005
   1.2938700000000001  16.8202800000000003   6.4693399999999999
  16.8202800000000003  14.2325499999999998  21.9957500000000010
  14.2325499999999998  24.5834900000000012  24.5834900000000012
  11.6448099999999997   3.8816000000000002   1.2938700000000001
   3.8816000000000002  19.4080200000000005  11.6448099999999997
   1.2938700000000001  14.2325499999999998  19.4080200000000005
   6.4693399999999999   3.8816000000000002  24.5834900000000012
   3.8816000000000002  19.4080200000000005  21.9957500000000010
  16.8202800000000003   9.0570799999999991  19.4080200000000005
   9.0570799999999991  14.2325499999999998  19.4080200000000005
  21.9957500000000010  14.2325499999999998  19.4080200000000005
  11.6448099999999997  14.2325499999999998   6.4693399999999999
   3.8816000000000002   6.4693399999999999  14.2325499999999998
  19.4080200000000005  19.4080200000000005   9.0570799999999991
  16.8202800000000003  14.2325499999999998   6.4693399999999999
  19.4080200000000005   9.0570799999999991   1.2938700000000001
  16.8202800000000003  19.4080200000000005   9.0570799999999991
   9.0570799999999991   1.2938700000000001   6.4693399999999999
  19.4080200000000005  16.8202800000000003  24.5834900000000012
   6.4693399999999999   6.4693399999999999   3.8816000000000002
   3.8816000000000002  24.5834900000000012  11.6448099999999997
   9.0570799999999991   3.8816000000000002  16.8202800000000003
  19.4080200000000005  16.8202800000000003  11.6448099999999997
  16.8202800000000003  21.9957500000000010  24.5834900000000012
  14.2325499999999998  19.4080200000000005  21.9957500000000010
  24.5834900000000012   6.4693399999999999  11.6448099999999997
   3.8816000000000002  14.2325499999999998  16.8202800000000003
   9.0570799999999991   9.0570799999999991  14.2325499999999998
  21.9957500000000010  14.2325499999999998   3.8816000000000002
   1.2938700000000001  11.6448099999999997  16.8202800000000003
   6.4693399999999999  21.9957500000000010  11.6448099999999997
   9.0570799999999991   6.4693399999999999   9.0570799999999991
   3.8816000000000002  14.2325499999999998  21.9957500000000010
  19.4080200000000005  21.9957500000000010   6.4693399999999999
  19.4080200000000005   6.4693399999999999   1.2938700000000001
  16.8202800000000003  11.6448099999999997   1.2938700000000001
   1.2938700000000001  16.8202800000000003  11.6448099999999997
   9.0570799999999991   6.4693399999999999   1.2938700000000001
  19.4080200000000005  14.2325499999999998   6.4693399999999999
   3.8816000000000002   1.2938700000000001   1.2938700000000001
  19.4080200000000005   9.0570799999999991   3.8816000000000002
   1.2938700000000001   9.0570799999999991  24.5834900000000012
   6.4693399999999999   3.8816000000000002  16.8202800000000003
   3.8816000000000002  16.8202800000000003   1.2938700000000001
  11.6448099999999997   3.8816000000000002  21.9957500000000010
   9.0570799999999991  11.6448099999999997  24.5834900000000012
  19.4080200000000005   3.8816000000000002  11.6448099999999997
  14.2325499999999998  11.6448099999999997   1.2938700000000001
   3.8816000000000002  24.5834900000000012   1.2938700000000001
   1.2938700000000001  11.6448099999999997  11.6448099999999997
  21.9957500000000010  11.6448099999999997  19.4080200000000005
  19.4080200000000005   1.2938700000000001   1.2938700000000001
   3.8816000000000002  14.2325499999999998  24.5834900000000012
  11.6448099999999997  21.9957500000000010   3.8816000000000002
  14.2325499999999998  14.2325499999999998  14.2325499999999998
   3.8816000000000002  14.2325499999999998   3.8816000000000002
  11.6448099999999997  16.8202800000000003  11.6448099999999997
   9.0570799999999991  14.2325499999999998   9.0570799999999991
  14.2325499999999998  16.8202800000000003  11.6448099999999997
   1.2938700000000001   3.8816000000000002  21.9957500000000010
  11.6448099999999997   6.4693399999999999   3.8816000000000002
   9.0570799999999991   6.4693399999999999  21.9957500000000010
  16.8202800000000003  21.9957500000000010  21.9957500000000010
  14.2325499999999998  19.4080200000000005   9.0570799999999991
  14.2325499999999998   3.8816000000000002   1.2938700000000001
  14.2325499999999998  14.2325499999999998  16.8202800000000003
  11.6448099999999997  19.4080200000000005   6.4693399999999999
  16.8202800000000003  19.4080200000000005   6.4693399999999999
  21.9957500000000010  14.2325499999999998   6.4693399999999999
   1.2938700000000001  11.6448099999999997   3.8816000000000002
  14.2325499999999998   6.4693399999999999   1.2938700000000001
   3.8816000000000002  14.2325499999999998  19.4080200000000005
   6.4693399999999999   6.4693399999999999  24.5834900000000012
   9.0570799999999991  19.4080200000000005   6.4693399999999999
  11.6448099999999997  14.2325499999999998  21.9957500000000010
  19.4080200000000005  11.6448099999999997  19.4080200000000005
   1.2938700000000001   3.8816000000000002  14.2325499999999998
   6.4693399999999999  24.5834900000000012  16.8202800000000003
   1.2938700000000001  21.9957500000000010  21.9957500000000010
  16.8202800000000003  21.9957500000000010   1.2938700000000001
   9.0570799999999991  21.9957500000000010   6.4693399999999999
   3.8816000000000002   6.4693399999999999  24.5834900000000012
  21.9957500000000010  16.8202800000000003  16.8202800000000003
  19.4080200000000005  24.5834900000000012   3.8816000000000002
  14.2325499999999998  24.5834900000000012   1.2938700000000001
   6.4693399999999999  16.8202800000000003  16.8202800000000003
  16.8202800000000003  11.6448099999999997   9.0570799999999991
   6.4693399999999999   6.4693399999999999  14.2325499999999998
  24.5834900000000012   9.0570799999999991   1.2938700000000001
  16.8202800000000003   1.2938700000000001   3.8816000000000002
  11.6448099999999997  16.8202800000000003  21.9957500000000010
   9.0570799999999991   3.8816000000000002  21.9957500000000010
  21.9957500000000010  14.2325499999999998  21.9957500000000010
   9.0570799999999991   1.2938700000000001   3.8816000000000002
  24.5834900000000012  11.6448099999999997  11.6448099999999997
  19.4080200000000005  16.8202800000000003  21.9957500000000010
  19.4080200000000005  14.2325499999999998  24.5834900000000012
  11.6448099999999997  14.2325499999999998  24.5834900000000012
  24.5834900000000012  16.8202800000000003   3.8816000000000002
   6.4693399999999999  11.6448099999999997  19.4080200000000005
  11.6448099999999997  11.6448099999999997  16.8202800000000003
  11.6448099999999997  24.5834900000000012   3.8816000000000002
  19.4080200000000005   9.0570799999999991  16.8202800000000003
  21.9957500000000010  16.8202800000000003  21.9957500000000010
  19.4080200000000005  21.9957500000000010  11.6448099999999997
  19.4080200000000005  16.8202800000000003   1.2938700000000001
   3.8816000000000002  24.5834900000000012  24.5834900000000012
  19.4080200000000005  24.5834900000000012  21.9957500000000010
  24.5834900000000012   9.0570799999999991   3.8816000000000002
   9.0570799999999991   9.0570799999999991  19.4080200000000005
  11.6448099999999997  14.2325499999999998   9.0570799999999991
   3.8816000000000002  24.5834900000000012  21.9957500000000010
   3.8816000000000002  21.9957500000000010  19.4080200000000005
   9.0570799999999991  24.5834900000000012  24.5834900000000012
   6.4693399999999999  11.6448099999999997  14.2325499999999998
  24.5834900000000012   3.8816000000000002   1.2938700000000001
  24.5834900000000012  14.2325499999999998   1.2938700000000001
  16.8202800000000003  24.5834900000000012  14.2325499999999998
   9.0570799999999991   9.0570799999999991  24.5834900000000012
  14.2325499999999998   3.8816000000000002  21.9957500000000010
  24.5834900000000012  21.9957500000000010  11.6448099999999997
  14.2325499999999998  14.2325499999999998  11.6448099999999997
  21.9957500000000010   9.0570799999999991  21.9957500000000010
   9.0570799999999991  16.8202800000000003   1.2938700000000001
   3.8816000000000002   9.0570799999999991   3.8816000000000002
   6.4693399999999999   1.2938700000000001  14.2325499999999998
  11.6448099999999997  14.2325499999999998   3.8816000000000002
  19.4080200000000005  24.5834900000000012  16.8202800000000003
   6.4693399999999999   1.2938700000000001  11.6448099999999997
  14.2325499999999998  24.5834900000000012  11.6448099999999997
  21.9957500000000010   6.4693399999999999   1.2938700000000001
   3.8816000000000002   3.8816000000000002   3.8816000000000002
  21.9957500000000010   3.8816000000000002  11.6448099999999997
  16.8202800000000003  16.8202800000000003   3.8816000000000002
  24.5834900000000012   6.4693399999999999  19.4080200000000005
   3.8816000000000002  11.6448099999999997   9.0570799999999991
   1.2938700000000001   6.4693399999999999  19.4080200000000005
   6.4693399999999999  14.2325499999999998   3.8816000000000002
   6.4693399999999999  24.5834900000000012  11.6448099999999997
  11.6448099999999997  19.4080200000000005  21.9957500000000010
  16.8202800000000003  14.2325499999999998   3.8816000000000002
   3.8816000000000002  24.5834900000000012  14.2325499999999998
  24.5834900000000012  19.4080200000000005  24.5834900000000012
   3.8816000000000002   1.2938700000000001  11.6448099999999997
  24.5834900000000012  14.2325499999999998  16.8202800000000003
  16.8202800000000003  11.6448099999999997  21.9957500000000010
   6.4693399999999999  19.4080200000000005  19.4080200000000005
   6.4693399999999999   9.0570799999999991  24.5834900000000012
   9.0570799999999991  11.6448099999999997  14.2325499999999998
  11.6448099999999997  24.5834900000000012   1.2938700000000001
  24.5834900000000012   6.4693399999999999  21.9957500000000010
  11.6448099999999997  21.9957500000000010   1.2938700000000001
  16.8202800000000003   1.2938700000000001  14.2325499999999998
  14.2325499999999998  14.2325499999999998  21.9957500000000010
   6.4693399999999999  16.8202800000000003  21.9957500000000010
  16.8202800000000003  11.6448099999999997   6.4693399999999999
  11.6448099999999997  14.2325499999999998  14.2325499999999998
  11.6448099999999997  19.4080200000000005   9.0570799999999991
  16.8202800000000003  19.4080200000000005  14.2325499999999998
  14.2325499999999998  21.9957500000000010  14.2325499999999998
  14.2325499999999998  11.6448099999999997  14.2325499999999998
   1.2938700000000001   1.2938700000000001  24.5834900000000012
  21.9957500000000010   1.2938700000000001  11.6448099999999997
   9.0570799999999991   3.8816000000000002   3.8816000000000002
   3.8816000000000002   9.0570799999999991  19.4080200000000005
  24.5834900000000012  24.5834900000000012   3.8816000000000002
  19.4080200000000005   6.4693399999999999   3.8816000000000002
   3.8816000000000002  11.6448099999999997  14.2325499999999998
  21.9957500000000010   9.0570799999999991  11.6448099999999997
  16.8202800000000003   9.0570799999999991   6.4693399999999999
  14.2325499999999998  11.6448099999999997  21.9957500000000010
   1.2938700000000001   6.4693399999999999   3.8816000000000002
  11.6448099999999997  11.6448099999999997   3.8816000000000002
  11.6448099999999997   6.4693399999999999   1.2938700000000001
  14.2325499999999998  11.6448099999999997  24.5834900000000012
  21.9957500000000010  14.2325499999999998   1.2938700000000001
  14.2325499999999998  16.8202800000000003  21.9957500000000010
  21.9957500000000010   6.4693399999999999  21.9957500000000010
   6.4693399999999999  14.2325499999999998  19.4080200000000005
  19.4080200000000005  14.2325499999999998   1.2938700000000001
  24.5834900000000012   3.8816000000000002  16.8202800000000003
   9.0570799999999991  19.4080200000000005   3.8816000000000002
  11.6448099999999997   1.2938700000000001  24.5834900000000012
  16.8202800000000003  24.5834900000000012  16.8202800000000003
   9.0570799999999991  11.6448099999999997  16.8202800000000003
  11.6448099999999997  16.8202800000000003   1.2938700000000001
   6.4693399999999999  19.4080200000000005   6.4693399999999999
  14.2325499999999998  24.5834900000000012  21.9957500000000010
  11.6448099999999997  11.6448099999999997  11.6448099999999997
   1.2938700000000001  14.2325499999999998   3.8816000000000002
  14.2325499999999998   9.0570799999999991   1.2938700000000001
  14.2325499999999998   9.0570799999999991  14.2325499999999998
  14.2325499999999998  21.9957500000000010  21.9957500000000010
   3.8816000000000002  21.9957500000000010   1.2938700000000001
   1.2938700000000001  21.9957500000000010   3.8816000000000002
   6.4693399999999999  16.8202800000000003   6.4693399999999999
   9.0570799999999991  24.5834900000000012  11.6448099999999997
  16.8202800000000003  19.4080200000000005   3.8816000000000002
   1.2938700000000001  24.5834900000000012   9.0570799999999991
  16.8202800000000003   3.8816000000000002  21.9957500000000010
   9.0570799999999991  11.6448099999999997  19.4080200000000005
   6.4693399999999999  24.5834900000000012   1.2938700000000001
  24.5834900000000012   3.8816000000000002   3.8816000000000002
   9.0570799999999991  11.6448099999999997   6.4693399999999999
   3.8816000000000002   3.8816000000000002  19.4080200000000005
   3.8816000000000002  19.4080200000000005  14.2325499999999998
   9.0570799999999991   1.2938700000000001  24.5834900000000012
   3.8816000000000002  19.4080200000000005   3.8816000000000002
   3.8816000000000002   9.0570799999999991   6.4693399999999999
  16.8202800000000003   9.0570799999999991   1.2938700000000001
  21.9957500000000010   6.4693399999999999   9.0570799999999991
   3.8816000000000002   3.8816000000000002  14.2325499999999998
   1.2938700000000001  11.6448099999999997  24.5834900000000012
  11.6448099999999997   1.2938700000000001  16.8202800000000003
   9.0570799999999991   9.0570799999999991   1.2938700000000001
   6.4693399999999999  21.9957500000000010  14.2325499999999998
   6.4693399999999999  11.6448099999999997  24.5834900000000012
   6.4693399999999999  21.9957500000000010  21.9957500000000010
   1.2938700000000001  16.8202800000000003   3.8816000000000002
  24.5834900000000012   3.8816000000000002   6.4693399999999999
   1.2938700000000001  14.2325499999999998  16.8202800000000003
  21.9957500000000010  24.5834900000000012   1.2938700000000001
  16.8202800000000003  21.9957500000000010   6.4693399999999999
  19.4080200000000005   9.0570799999999991   9.0570799999999991
  21.9957500000000010  21.9957500000000010   6.4693399999999999
  16.8202800000000003   6.4693399999999999   3.8816000000000002
   3.8816000000000002  16.8202800000000003  21.9957500000000010
  21.9957500000000010  14.2325499999999998  11.6448099999999997
   9.0570799999999991  14.2325499999999998  21.9957500000000010
  11.6448099999999997  11.6448099999999997  24.5834900000000012
   1.2938700000000001  21.9957500000000010   6.4693399999999999
  11.6448099999999997   3.8816000000000002  16.8202800000000003
  11.6448099999999997  16.8202800000000003  16.8202800000000003
  11.6448099999999997   1.2938700000000001   1.2938700000000001
  24.5834900000000012  19.4080200000000005  14.2325499999999998
   3.8816000000000002   1.2938700000000001   6.4693399999999999
   1.2938700000000001  14.2325499999999998   6.4693399999999999
   6.4693399999999999  11.6448099999999997   9.0570799999999991
  11.6448099999999997   1.2938700000000001  19.4080200000000005
   3.8816000000000002   9.0570799999999991  14.2325499999999998
   1.2938700000000001  24.5834900000000012  14.2325499999999998
  21.9957500000000010  14.2325499999999998  14.2325499999999998
   3.8816000000000002  21.9957500000000010  21.9957500000000010
   1.2938700000000001  19.4080200000000005   1.2938700000000001
   1.2938700000000001  21.9957500000000010  19.4080200000000005
  14.2325499999999998  14.2325499999999998  19.4080200000000005
  14.2325499999999998   1.2938700000000001  24.5834900000000012
  21.9957500000000010   1.2938700000000001  21.9957500000000010
  11.6448099999999997  16.8202800000000003  19.4080200000000005
   1.2938700000000001  14.2325499999999998  11.6448099999999997
  14.2325499999999998  21.9957500000000010   3.8816000000000002
  16.8202800000000003   1.2938700000000001   9.0570799999999991
  19.4080200000000005  11.6448099999999997  16.8202800000000003
   9.0570799999999991  16.8202800000000003   6.4693399999999999
   9.0570799999999991  11.6448099999999997   1.2938700000000001
   1.2938700000000001  11.6448099999999997  21.9957500000000010
  19.4080200000000005  24.5834900000000012   1.2938700000000001
   9.0570799999999991  11.6448099999999997  11.6448099999999997
   6.4693399999999999   6.4693399999999999   1.2938700000000001
  16.8202800000000003   3.8816000000000002   6.4693399999999999
  19.4080200000000005  19.4080200000000005  14.2325499999999998
   9.0570799999999991   6.4693399999999999  11.6448099999999997
   9.0570799999999991  21.9957500000000010  14.2325499999999998
   6.4693399999999999  14.2325499999999998   1.2938700000000001
  16.8202800000000003  19.4080200000000005  21.9957500000000010
   1.2938700000000001   3.8816000000000002   3.8816000000000002
   1.2938700000000001  21.9957500000000010  16.8202800000000003
  21.9957500000000010  11.6448099999999997  24.5834900000000012
   9.0570799999999991   1.2938700000000001  11.6448099999999997
   1.2938700000000001  16.8202800000000003  19.4080200000000005
  11.6448099999999997  19.4080200000000005  16.8202800000000003
  14.2325499999999998   6.4693399999999999  24.5834900000000012
   6.4693399999999999   3.8816000000000002   9.0570799999999991
  11.6448099999999997  19.4080200000000005  19.4080200000000005
  16.8202800000000003  16.8202800000000003   9.0570799999999991
   9.0570799999999991  24.5834900000000012   1.2938700000000001
   1.2938700000000001   6.4693399999999999   9.0570799999999991
  19.4080200000000005  16.8202800000000003  16.8202800000000003
   9.0570799999999991  21.9957500000000010  21.9957500000000010
   6.4693399999999999   1.2938700000000001  24.5834900000000012
  16.8202800000000003  24.5834900000000012  11.6448099999999997
  16.8202800000000003  16.8202800000000003  21.9957500000000010
  19.4080200000000005  24.5834900000000012   6.4693399999999999
  21.9957500000000010   6.4693399999999999   6.4693399999999999
  19.4080200000000005   9.0570799999999991  21.9957500000000010
  19.4080200000000005   6.4693399999999999  24.5834900000000012
  24.5834900000000012  11.6448099999999997   9.0570799999999991
  11.6448099999999997  24.5834900000000012  14.2325499999999998
  11.6448099999999997  24.5834900000000012   6.4693399999999999
  11.6448099999999997   9.0570799999999991  14.2325499999999998
  24.5834900000000012  14.2325499999999998   3.8816000000000002
  11.6448099999999997   9.0570799999999991  11.6448099999999997
   6.4693399999999999  16.8202800000000003  19.4080200000000005
  19.4080200000000005   1.2938700000000001  21.9957500000000010
   1.2938700000000001   9.0570799999999991  19.4080200000000005
  21.9957500000000010  11.6448099999999997   9.0570799999999991
  16.8202800000000003  24.5834900000000012   3.8816000000000002
  11.6448099999999997  24.5834900000000012  11.6448099999999997
   3.8816000000000002  11.6448099999999997  21.9957500000000010
  19.4080200000000005  21.9957500000000010   1.2938700000000001
  24.5834900000000012   1.2938700000000001   6.4693399999999999
   1.2938700000000001   3.8816000000000002  16.8202800000000003
   6.4693399999999999   3.8816000000000002   6.4693399999999999
   9.0570799999999991   3.8816000000000002  19.4080200000000005
  16.8202800000000003   9.0570799999999991  24.5834900000000012