GeTe
  1.0000000000000000
    17.3231600000000014   0.0000000000000000   0.0000000000000000
     0.0000000000000000  17.3231600000000014   0.0000000000000000
     0.0000000000000000   0.0000000000000000  17.3231600000000014
  Ge  Te
  96  96
Cartesian
   3.7121000000000000   6.1868400000000001   1.2373700000000001
   3.7121000000000000  13.6110500000000005   8.6615800000000007
   6.1868400000000001   6.1868400000000001  11.1363099999999999
  16.0857899999999994  16.0857899999999994  16.0857899999999994
  13.6110500000000005   1.2373700000000001   3.7121000000000000
   6.1868400000000001   1.2373700000000001   3.7121000000000000
  16.0857899999999994  16.0857899999999994  11.1363099999999999
  16.0857899999999994   3.7121000000000000   1.2373700000000001
  13.6110500000000005  11.1363099999999999  11.1363099999999999
   6.1868400000000001   1.2373700000000001   6.1868400000000001
  16.0857899999999994   1.2373700000000001  16.0857899999999994
   3.7121000000000000  16.0857899999999994   6.1868400000000001
   3.7121000000000000  11.1363099999999999   6.1868400000000001
  16.0857899999999994   3.7121000000000000   6.1868400000000001
   6.1868400000000001   3.7121000000000000  16.0857899999999994
  11.1363099999999999   8.6615800000000007   3.7121000000000000
  13.6110500000000005   1.2373700000000001  16.0857899999999994
   1.2373700000000001   6.1868400000000001   1.2373700000000001
   3.7121000000000000  16.0857899999999994  13.6110500000000005
   3.7121000000000000  16.0857899999999994  16.0857899999999994
   8.6615800000000007   1.2373700000000001   3.7121000000000000
  16.0857899999999994  16.0857899999999994   3.7121000000000000
   8.6615800000000007  11.1363099999999999   6.1868400000000001
   3.7121000000000000   1.2373700000000001   8.6615800000000007
   1.2373700000000001   3.7121000000000000  13.6110500000000005
  11.1363099999999999  13.6110500000000005   1.2373700000000001
  11.1363099999999999  11.1363099999999999  16.0857899999999994
  16.0857899999999994  11.1363099999999999  13.6110500000000005
  16.0857899999999994   1.2373700000000001   1.2373700000000001
  13.6110500000000005  16.0857899999999994   8.6615800000000007
   3.7121000000000000  13.6110500000000005   6.1868400000000001
  16.0857899999999994   6.1868400000000001  13.6110500000000005
  11.1363099999999999   3.7121000000000000   1.2373700000000001
  11.1363099999999999   3.7121000000000000  11.1363099999999999
   8.6615800000000007   6.1868400000000001  16.0857899999999994
  16.0857899999999994   8.6615800000000007   8.6615800000000007
   6.1868400000000001  11.1363099999999999   6.1868400000000001
   8.6615800000000007  13.6110500000000005  16.0857899999999994
  11.1363099999999999   8.6615800000000007  13.6110500000000005
  11.1363099999999999   6.1868400000000001  13.6110500000000005
   1.2373700000000001  16.0857899999999994   6.1868400000000001
   3.7121000000000000   3.7121000000000000   1.2373700000000001
  13.6110500000000005  13.6110500000000005   6.1868400000000001
  11.1363099999999999   8.6615800000000007   8.6615800000000007
   6.1868400000000001  11.1363099999999999  13.6110500000000005
  13.6110500000000005   3.7121000000000000   6.1868400000000001
   8.6615800000000007   6.1868400000000001   8.6615800000000007
   1.2373700000000001   1.2373700000000001   3.7121000000000000
   1.2373700000000001   6.1868400000000001   3.7121000000000000
   6.1868400000000001   8.6615800000000007  13.6110500000000005
  16.0857899999999994  13.6110500000000005  13.6110500000000005
  16.0857899999999994   3.7121000000000000  13.6110500000000005
   1.2373700000000001  11.1363099999999999   1.2373700000000001
   6.1868400000000001   6.1868400000000001   8.6615800000000007
   1.2373700000000001   1.2373700000000001   1.2373700000000001
  11.1363099999999999   6.1868400000000001  16.0857899999999994
   8.6615800000000007   8.6615800000000007  13.6110500000000005
  11.1363099999999999  16.0857899999999994  11.1363099999999999
  13.6110500000000005   6.1868400000000001   1.2373700000000001
   1.2373700000000001   6.1868400000000001  13.6110500000000005
   8.6615800000000007  16.0857899999999994   1.2373700000000001
   1.2373700000000001   8.6615800000000007  11.1363099999999999
  13.6110500000000005   8.6615800000000007  13.6110500000000005
   8.6615800000000007   6.1868400000000001   1.2373700000000001
   8.6615800000000007   6.1868400000000001   3.7121000000000000
   1.2373700000000001  11.1363099999999999  11.1363099999999999
  13.6110500000000005   8.6615800000000007   1.2373700000000001
   1.2373700000000001  13.6110500000000005  11.1363099999999999
   8.6615800000000007   8.6615800000000007  16.0857899999999994
  11.1363099999999999   8.6615800000000007   6.1868400000000001
   8.6615800000000007  13.6110500000000005   1.2373700000000001
   1.2373700000000001   8.6615800000000007   1.2373700000000001
  11.1363099999999999   6.1868400000000001   8.6615800000000007
  13.6110500000000005  16.0857899999999994  13.6110500000000005
   6.1868400000000001  11.1363099999999999  11.1363099999999999
   1.2373700000000001  16.0857899999999994   3.7121000000000000
   3.7121000000000000   6.1868400000000001   8.6615800000000007
   6.1868400000000001  11.1363099999999999   8.6615800000000007
   6.1868400000000001  11.1363099999999999   3.7121000000000000
   3.7121000000000000  13.6110500000000005   3.7121000000000000
  13.6110500000000005  13.6110500000000005   1.2373700000000001
   1.2373700000000001  16.0857899999999994   8.6615800000000007
   8.6615800000000007  16.0857899999999994   8.6615800000000007
   3.7121000000000000  11.1363099999999999   8.6615800000000007
  16.0857899999999994  16.0857899999999994  13.6110500000000005
  11.1363099999999999   6.1868400000000001   1.2373700000000001
  13.6110500000000005   1.2373700000000001   6.1868400000000001
  11.1363099999999999  13.6110500000000005  16.0857899999999994
  16.0857899999999994  11.1363099999999999   1.2373700000000001
   8.6615800000000007   8.6615800000000007   3.7121000000000000
  16.0857899999999994  13.6110500000000005   1.2373700000000001
   1.2373700000000001  11.1363099999999999  16.0857899999999994
   3.7121000000000000   1.2373700000000001   3.7121000000000000
   1.2373700000000001  16.0857899999999994  16.0857899999999994
   8.6615800000000007   6.1868400000000001  13.6110500000000005
   1.2373700000000001   6.1868400000000001  16.0857899999999994
  16.0857899999999994   1.2373700000000001  11.1363099999999999
   1.2373700000000001   3.7121000000000000   6.1868400000000001
   8.6615800000000007  16.0857899999999994  11.1363099999999999
   8.6615800000000007   3.7121000000000000   1.2373700000000001
   3.7121000000000000  11.1363099999999999  16.0857899999999994
   8.6615800000000007  13.6110500000000005   3.7121000000000000
   3.7121000000000000  11.1363099999999999   3.7121000000000000
  16.0857899999999994  13.6110500000000005   3.7121000000000000
   3.7121000000000000   1.2373700000000001   6.1868400000000001
  16.0857899999999994  13.6110500000000005   6.1868400000000001
  11.1363099999999999   1.2373700000000001  11.1363099999999999
   1.2373700000000001  11.1363099999999999  13.6110500000000005
   8.6615800000000007   1.2373700000000001  11.1363099999999999
   3.7121000000000000  13.6110500000000005  11.1363099999999999
   1.2373700000000001  13.6110500000000005   1.2373700000000001
  11.1363099999999999   3.7121000000000000  16.0857899999999994
   6.1868400000000001   3.7121000000000000   8.6615800000000007
   3.7121000000000000  16.0857899999999994   3.7121000000000000
  11.1363099999999999  11.1363099999999999   6.1868400000000001
   3.7121000000000000   1.2373700000000001  16.0857899999999994
  11.1363099999999999   8.6615800000000007  11.1363099999999999
  11.1363099999999999  11.1363099999999999   1.2373700000000001
  13.6110500000000005  11.1363099999999999   8.6615800000000007
  13.6110500000000005   8.6615800000000007  11.1363099999999999
  11.1363099999999999   1.2373700000000001   6.1868400000000001
   8.6615800000000007  11.1363099999999999   3.7121000000000000
  13.6110500000000005  13.6110500000000005  16.0857899999999994
  16.0857899999999994   1.2373700000000001   3.7121000000000000
   8.6615800000000007  11.1363099999999999  13.6110500000000005
  16.0857899999999994  16.0857899999999994   8.6615800000000007
   1.2373700000000001   1.2373700000000001  13.6110500000000005
   1.2373700000000001   8.6615800000000007   3.7121000000000000
  16.0857899999999994  11.1363099999999999  16.0857899999999994
   3.7121000000000000   6.1868400000000001  11.1363099999999999
   1.2373700000000001   3.7121000000000000   1.2373700000000001
   6.1868400000000001  16.0857899999999994   3.7121000000000000
  16.0857899999999994   1.2373700000000001   8.6615800000000007
   6.1868400000000001  16.0857899999999994  11.1363099999999999
   6.1868400000000001   6.1868400000000001   6.1868400000000001
   6.1868400000000001   6.1868400000000001  16.0857899999999994
   1.2373700000000001  13.6110500000000005   3.7121000000000000
   6.1868400000000001  13.6110500000000005   8.6615800000000007
   6.1868400000000001   6.1868400000000001  13.6110500000000005
   1.2373700000000001   1.2373700000000001   8.6615800000000007
   3.7121000000000000   1.2373700000000001   1.2373700000000001
  16.0857899999999994   8.6615800000000007  16.0857899999999994
   6.1868400000000001  16.0857899999999994   6.1868400000000001
   1.2373700000000001   3.7121000000000000  16.0857899999999994
  11.1363099999999999   1.2373700000000001   8.6615800000000007
   3.7121000000000000   3.7121000000000000   3.7121000000000000
  16.0857899999999994  16.0857899999999994   1.2373700000000001
   8.6615800000000007   1.2373700000000001  16.0857899999999994
   3.7121000000000000   8.6615800000000007  13.6110500000000005
  16.0857899999999994   6.1868400000000001   1.2373700000000001
   6.1868400000000001   3.7121000000000000   6.1868400000000001
  16.0857899999999994   8.6615800000000007   6.1868400000000001
   1.2373700000000001   8.6615800000000007   8.6615800000000007
  16.0857899999999994   8.6615800000000007  13.6110500000000005
   1.2373700000000001   3.7121000000000000   8.6615800000000007
  11.1363099999999999   8.6615800000000007   1.2373700000000001
  13.6110500000000005  13.6110500000000005   8.6615800000000007
  11.1363099999999999  16.0857899999999994   3.7121000000000000
  13.6110500000000005   6.1868400000000001   6.1868400000000001
   8.6615800000000007  13.6110500000000005   6.1868400000000001
   3.7121000000000000  16.0857899999999994   1.2373700000000001
  11.1363099999999999   6.1868400000000001   6.1868400000000001
   1.2373700000000001   3.7121000000000000  11.1363099999999999
   3.7121000000000000   6.1868400000000001  16.0857899999999994
  11.1363099999999999  13.6110500000000005  13.6110500000000005
  13.6110500000000005   8.6615800000000007   6.1868400000000001
   8.6615800000000007   8.6615800000000007   6.1868400000000001
   8.6615800000000007  13.6110500000000005   8.6615800000000007
   8.6615800000000007   8.6615800000000007   1.2373700000000001
   3.7121000000000000   3.7121000000000000  11.1363099999999999
  13.6110500000000005  11.1363099999999999   1.2373700000000001
   8.6615800000000007   3.7121000000000000   8.6615800000000007
   8.6615800000000007   3.7121000000000000  16.0857899999999994
   1.2373700000000001  16.0857899999999994  11.1363099999999999
  16.0857899999999994   3.7121000000000000  11.1363099999999999
  11.1363099999999999   1.2373700000000001   1.2373700000000001
  13.6110500000000005   1.2373700000000001   8.6615800000000007
   6.1868400000000001   8.6615800000000007  16.0857899999999994
  16.0857899999999994   3.7121000000000000   8.6615800000000007
   1.2373700000000001   1.2373700000000001  16.0857899999999994
   3.7121000000000000   1.2373700000000001  11.1363099999999999
  11.1363099999999999   6.1868400000000001  11.1363099999999999
   6.1868400000000001   8.6615800000000007   8.6615800000000007
   1.2373700000000001   1.2373700000000001  11.1363099999999999
   6.1868400000000001  13.6110500000000005   3.7121000000000000
   8.6615800000000007  11.1363099999999999  16.0857899999999994
  13.6110500000000005   6.1868400000000001  11.1363099999999999
   6.1868400000000001   3.7121000000000000  11.1363099999999999
   8.6615800000000007   1.2373700000000001   1.2373700000000001
  11.1363099999999999  16.0857899999999994  13.6110500000000005
   6.1868400000000001   1.2373700000000001  11.1363099999999999
   6.1868400000000001   8.6615800000000007   6.1868400000000001
