GeTe
  1.0000000000000000
    22.9766100000000009   0.0000000000000000   0.0000000000000000
     0.0000000000000000  22.9766100000000009   0.0000000000000000
     0.0000000000000000   0.0000000000000000  22.9766100000000009
  224  224
Cartesian
   6.3823900000000000  16.5942200000000000  14.0412599999999994
  11.4883000000000006   6.3823900000000000  21.7001300000000015
  16.5942200000000000   3.8294299999999999  14.0412599999999994
  21.7001300000000015   8.9353499999999997  14.0412599999999994
  21.7001300000000015   6.3823900000000000   6.3823900000000000
   3.8294299999999999  21.7001300000000015  11.4883000000000006
   6.3823900000000000  11.4883000000000006  21.7001300000000015
  16.5942200000000000   8.9353499999999997   1.2764800000000001
   8.9353499999999997  19.1471699999999991  21.7001300000000015
  16.5942200000000000  14.0412599999999994  16.5942200000000000
   8.9353499999999997  21.7001300000000015  19.1471699999999991
   3.8294299999999999  11.4883000000000006   8.9353499999999997
  14.0412599999999994   1.2764800000000001  16.5942200000000000
  19.1471699999999991   3.8294299999999999  11.4883000000000006
  16.5942200000000000   8.9353499999999997  19.1471699999999991
  16.5942200000000000  16.5942200000000000  19.1471699999999991
  14.0412599999999994   6.3823900000000000  14.0412599999999994
   3.8294299999999999  14.0412599999999994  11.4883000000000006
   1.2764800000000001  11.4883000000000006  11.4883000000000006
  16.5942200000000000   1.2764800000000001  11.4883000000000006
   3.8294299999999999  21.7001300000000015  16.5942200000000000
  21.7001300000000015   6.3823900000000000   8.9353499999999997
  19.1471699999999991   6.3823900000000000  11.4883000000000006
   3.8294299999999999  11.4883000000000006  11.4883000000000006
   6.3823900000000000  21.7001300000000015   3.8294299999999999
   1.2764800000000001  21.7001300000000015  11.4883000000000006
   6.3823900000000000  21.7001300000000015  21.7001300000000015
   1.2764800000000001   3.8294299999999999  14.0412599999999994
   8.9353499999999997  21.7001300000000015   1.2764800000000001
   6.3823900000000000  14.0412599999999994  14.0412599999999994
  16.5942200000000000  11.4883000000000006   6.3823900000000000
   1.2764800000000001  11.4883000000000006  19.1471699999999991
  14.0412599999999994  21.7001300000000015  19.1471699999999991
  14.0412599999999994   8.9353499999999997   8.9353499999999997
  16.5942200000000000   6.3823900000000000   3.8294299999999999
  14.0412599999999994   1.2764800000000001  21.7001300000000015
   3.8294299999999999  21.7001300000000015  19.1471699999999991
   1.2764800000000001  14.0412599999999994  14.0412599999999994
  16.5942200000000000   1.2764800000000001  16.5942200000000000
  21.7001300000000015  19.1471699999999991   6.3823900000000000
  19.1471699999999991  21.7001300000000015  11.4883000000000006
  11.4883000000000006   6.3823900000000000   6.3823900000000000
   1.2764800000000001  16.5942200000000000   3.8294299999999999
   3.8294299999999999  11.4883000000000006   1.2764800000000001
  14.0412599999999994  19.1471699999999991  14.0412599999999994
  14.0412599999999994   8.9353499999999997   3.8294299999999999
   8.9353499999999997  14.0412599999999994  16.5942200000000000
  16.5942200000000000   1.2764800000000001  21.7001300000000015
  16.5942200000000000   3.8294299999999999  16.5942200000000000
   8.9353499999999997  21.7001300000000015  21.7001300000000015
  11.4883000000000006  14.0412599999999994   1.2764800000000001
   6.3823900000000000  16.5942200000000000   6.3823900000000000
   1.2764800000000001  14.0412599999999994  11.4883000000000006
  21.7001300000000015  11.4883000000000006  16.5942200000000000
  19.1471699999999991   8.9353499999999997  14.0412599999999994
   6.3823900000000000   8.9353499999999997   6.3823900000000000
  11.4883000000000006  11.4883000000000006   1.2764800000000001
  16.5942200000000000  19.1471699999999991   3.8294299999999999
   6.3823900000000000  11.4883000000000006  14.0412599999999994
  19.1471699999999991   3.8294299999999999  14.0412599999999994
  11.4883000000000006   6.3823900000000000  11.4883000000000006
  11.4883000000000006  14.0412599999999994  19.1471699999999991
   1.2764800000000001   8.9353499999999997   8.9353499999999997
  16.5942200000000000  21.7001300000000015   1.2764800000000001
  16.5942200000000000  14.0412599999999994   8.9353499999999997
   1.2764800000000001  21.7001300000000015  16.5942200000000000
  11.4883000000000006   1.2764800000000001  21.7001300000000015
  21.7001300000000015   8.9353499999999997  11.4883000000000006
  16.5942200000000000  11.4883000000000006   3.8294299999999999
  16.5942200000000000  16.5942200000000000  21.7001300000000015
  11.4883000000000006  16.5942200000000000  11.4883000000000006
  16.5942200000000000  11.4883000000000006  11.4883000000000006
   8.9353499999999997  11.4883000000000006   6.3823900000000000
  16.5942200000000000  19.1471699999999991  14.0412599999999994
  14.0412599999999994   6.3823900000000000   1.2764800000000001
   8.9353499999999997   3.8294299999999999   3.8294299999999999
  14.0412599999999994   8.9353499999999997  21.7001300000000015
  21.7001300000000015  11.4883000000000006   6.3823900000000000
   6.3823900000000000   1.2764800000000001   8.9353499999999997
  21.7001300000000015   8.9353499999999997  19.1471699999999991
  21.7001300000000015   3.8294299999999999   8.9353499999999997
  21.7001300000000015   1.2764800000000001  21.7001300000000015
  11.4883000000000006   1.2764800000000001  11.4883000000000006
   3.8294299999999999  16.5942200000000000  14.0412599999999994
   8.9353499999999997  19.1471699999999991   8.9353499999999997
   8.9353499999999997   1.2764800000000001  11.4883000000000006
   8.9353499999999997  11.4883000000000006  11.4883000000000006
  19.1471699999999991  14.0412599999999994   3.8294299999999999
  14.0412599999999994   6.3823900000000000  19.1471699999999991
   3.8294299999999999  11.4883000000000006  14.0412599999999994
  19.1471699999999991  16.5942200000000000  21.7001300000000015
  21.7001300000000015  21.7001300000000015  21.7001300000000015
   1.2764800000000001  16.5942200000000000  11.4883000000000006
   8.9353499999999997   8.9353499999999997  16.5942200000000000
  21.7001300000000015  16.5942200000000000  14.0412599999999994
  19.1471699999999991  21.7001300000000015  16.5942200000000000
  21.7001300000000015  21.7001300000000015   8.9353499999999997
  16.5942200000000000   3.8294299999999999   1.2764800000000001
   8.9353499999999997   1.2764800000000001   8.9353499999999997
  19.1471699999999991   6.3823900000000000   3.8294299999999999
  21.7001300000000015  16.5942200000000000   3.8294299999999999
  14.0412599999999994  16.5942200000000000  19.1471699999999991
   3.8294299999999999   8.9353499999999997  21.7001300000000015
   3.8294299999999999  16.5942200000000000   3.8294299999999999
  19.1471699999999991   3.8294299999999999  21.7001300000000015
   3.8294299999999999   1.2764800000000001  21.7001300000000015
   1.2764800000000001  11.4883000000000006  21.7001300000000015
  21.7001300000000015  19.1471699999999991  21.7001300000000015
  16.5942200000000000   6.3823900000000000   8.9353499999999997
   1.2764800000000001  11.4883000000000006   3.8294299999999999
  11.4883000000000006   8.9353499999999997  19.1471699999999991
  11.4883000000000006  14.0412599999999994   8.9353499999999997
  14.0412599999999994   3.8294299999999999  11.4883000000000006
   1.2764800000000001   3.8294299999999999  19.1471699999999991
  19.1471699999999991  14.0412599999999994   1.2764800000000001
  16.5942200000000000  21.7001300000000015  19.1471699999999991
   3.8294299999999999  21.7001300000000015   3.8294299999999999
   1.2764800000000001  14.0412599999999994  19.1471699999999991
  16.5942200000000000  19.1471699999999991   1.2764800000000001
  14.0412599999999994  19.1471699999999991  16.5942200000000000
   1.2764800000000001   3.8294299999999999   8.9353499999999997
   8.9353499999999997   8.9353499999999997   6.3823900000000000
  11.4883000000000006   6.3823900000000000  14.0412599999999994
   6.3823900000000000  19.1471699999999991  11.4883000000000006
   6.3823900000000000   6.3823900000000000   1.2764800000000001
   8.9353499999999997  11.4883000000000006  14.0412599999999994
  14.0412599999999994   8.9353499999999997   1.2764800000000001
  14.0412599999999994   8.9353499999999997   6.3823900000000000
   3.8294299999999999  16.5942200000000000   6.3823900000000000
   1.2764800000000001  11.4883000000000006   6.3823900000000000
  19.1471699999999991   8.9353499999999997   6.3823900000000000
  19.1471699999999991  21.7001300000000015   3.8294299999999999
  21.7001300000000015  21.7001300000000015  14.0412599999999994
   3.8294299999999999   6.3823900000000000   3.8294299999999999
  16.5942200000000000   6.3823900000000000  21.7001300000000015
  11.4883000000000006  11.4883000000000006  21.7001300000000015
   1.2764800000000001  21.7001300000000015  21.7001300000000015
   3.8294299999999999   8.9353499999999997  19.1471699999999991
   1.2764800000000001   6.3823900000000000  11.4883000000000006
  14.0412599999999994  16.5942200000000000   1.2764800000000001
   8.9353499999999997   8.9353499999999997  21.7001300000000015
  11.4883000000000006   3.8294299999999999  21.7001300000000015
  11.4883000000000006   6.3823900000000000  19.1471699999999991
  21.7001300000000015  14.0412599999999994   6.3823900000000000
   6.3823900000000000   1.2764800000000001  16.5942200000000000
  19.1471699999999991  11.4883000000000006   8.9353499999999997
  14.0412599999999994   3.8294299999999999   3.8294299999999999
  11.4883000000000006  21.7001300000000015  11.4883000000000006
  19.1471699999999991  19.1471699999999991   3.8294299999999999
  11.4883000000000006  21.7001300000000015   1.2764800000000001
   3.8294299999999999  19.1471699999999991   3.8294299999999999
  21.7001300000000015   3.8294299999999999  16.5942200000000000
  21.7001300000000015   3.8294299999999999  11.4883000000000006
  21.7001300000000015  19.1471699999999991   3.8294299999999999
  19.1471699999999991  11.4883000000000006   6.3823900000000000
  21.7001300000000015   1.2764800000000001   3.8294299999999999
  14.0412599999999994  16.5942200000000000  11.4883000000000006
  14.0412599999999994  11.4883000000000006  19.1471699999999991
  16.5942200000000000  19.1471699999999991  19.1471699999999991
   6.3823900000000000  11.4883000000000006   3.8294299999999999
  19.1471699999999991  19.1471699999999991  11.4883000000000006
  19.1471699999999991   3.8294299999999999   8.9353499999999997
  14.0412599999999994  11.4883000000000006   8.9353499999999997
   8.9353499999999997  19.1471699999999991   6.3823900000000000
   1.2764800000000001  19.1471699999999991  16.5942200000000000
  11.4883000000000006   3.8294299999999999  11.4883000000000006
   8.9353499999999997  19.1471699999999991   3.8294299999999999
   1.2764800000000001   6.3823900000000000  16.5942200000000000
  19.1471699999999991   3.8294299999999999   6.3823900000000000
  16.5942200000000000  21.7001300000000015   6.3823900000000000
   6.3823900000000000   1.2764800000000001  14.0412599999999994
   1.2764800000000001   1.2764800000000001  11.4883000000000006
   8.9353499999999997  14.0412599999999994  11.4883000000000006
  14.0412599999999994  16.5942200000000000  21.7001300000000015
   8.9353499999999997   6.3823900000000000  14.0412599999999994
   6.3823900000000000  19.1471699999999991  16.5942200000000000
   1.2764800000000001  16.5942200000000000   8.9353499999999997
  14.0412599999999994  16.5942200000000000   3.8294299999999999
   6.3823900000000000   6.3823900000000000  14.0412599999999994
  21.7001300000000015  19.1471699999999991  19.1471699999999991
  21.7001300000000015  14.0412599999999994   3.8294299999999999
   3.8294299999999999  21.7001300000000015   1.2764800000000001
   6.3823900000000000  19.1471699999999991  19.1471699999999991
  11.4883000000000006   3.8294299999999999   1.2764800000000001
   6.3823900000000000   6.3823900000000000   3.8294299999999999
  16.5942200000000000   1.2764800000000001   3.8294299999999999
   6.3823900000000000  11.4883000000000006   1.2764800000000001
  21.7001300000000015  19.1471699999999991  11.4883000000000006
   6.3823900000000000  14.0412599999999994   6.3823900000000000
  16.5942200000000000  21.7001300000000015   8.9353499999999997
  19.1471699999999991  21.7001300000000015   1.2764800000000001
   3.8294299999999999  21.7001300000000015   6.3823900000000000
   1.2764800000000001   6.3823900000000000  19.1471699999999991
  21.7001300000000015  14.0412599999999994  21.7001300000000015
   1.2764800000000001   8.9353499999999997  16.5942200000000000
   3.8294299999999999   3.8294299999999999  16.5942200000000000
   3.8294299999999999   8.9353499999999997  11.4883000000000006
   8.9353499999999997   3.8294299999999999  16.5942200000000000
  19.1471699999999991  16.5942200000000000   8.9353499999999997
  16.5942200000000000  16.5942200000000000  14.0412599999999994
  16.5942200000000000   3.8294299999999999   8.9353499999999997
  16.5942200000000000  16.5942200000000000   6.3823900000000000
   1.2764800000000001   6.3823900000000000  14.0412599999999994
   3.8294299999999999   1.2764800000000001  11.4883000000000006
  21.7001300000000015  19.1471699999999991  14.0412599999999994
   8.9353499999999997   1.2764800000000001  16.5942200000000000
  16.5942200000000000   6.3823900000000000  16.5942200000000000
  19.1471699999999991   6.3823900000000000  16.5942200000000000
   8.9353499999999997   1.2764800000000001   1.2764800000000001
  14.0412599999999994  21.7001300000000015  21.7001300000000015
  16.5942200000000000  14.0412599999999994  14.0412599999999994
  16.5942200000000000  14.0412599999999994  21.7001300000000015
  11.4883000000000006  11.4883000000000006  14.0412599999999994
   8.9353499999999997  14.0412599999999994   6.3823900000000000
   3.8294299999999999  19.1471699999999991  16.5942200000000000
  19.1471699999999991  19.1471699999999991   6.3823900000000000
  21.7001300000000015   1.2764800000000001  14.0412599999999994
   1.2764800000000001   3.8294299999999999   1.2764800000000001
  19.1471699999999991  14.0412599999999994   8.9353499999999997
   1.2764800000000001  16.5942200000000000  21.7001300000000015
   6.3823900000000000  16.5942200000000000   3.8294299999999999
   6.3823900000000000  14.0412599999999994   3.8294299999999999
  14.0412599999999994   6.3823900000000000   3.8294299999999999
   6.3823900000000000   6.3823900000000000  11.4883000000000006
  11.4883000000000006   1.2764800000000001  14.0412599999999994
  11.4883000000000006  11.4883000000000006  11.4883000000000006
  21.7001300000000015   8.9353499999999997   1.2764800000000001
  14.0412599999999994   3.8294299999999999  21.7001300000000015
   1.2764800000000001   1.2764800000000001  19.1471699999999991
  16.5942200000000000   3.8294299999999999  19.1471699999999991
  11.4883000000000006  16.5942200000000000   6.3823900000000000
  16.5942200000000000   8.9353499999999997  14.0412599999999994
  21.7001300000000015   1.2764800000000001  11.4883000000000006
   6.3823900000000000   8.9353499999999997  11.4883000000000006
  21.7001300000000015  11.4883000000000006   3.8294299999999999
   6.3823900000000000   6.3823900000000000   8.9353499999999997
  19.1471699999999991   8.9353499999999997  21.7001300000000015
   3.8294299999999999  14.0412599999999994   3.8294299999999999
   3.8294299999999999   6.3823900000000000  21.7001300000000015
   8.9353499999999997   6.3823900000000000   3.8294299999999999
   1.2764800000000001   1.2764800000000001   8.9353499999999997
   1.2764800000000001  21.7001300000000015  14.0412599999999994
  11.4883000000000006  16.5942200000000000  14.0412599999999994
  11.4883000000000006  21.7001300000000015  21.7001300000000015
  16.5942200000000000   3.8294299999999999   6.3823900000000000
   6.3823900000000000   3.8294299999999999  19.1471699999999991
  14.0412599999999994   8.9353499999999997  11.4883000000000006
  11.4883000000000006  14.0412599999999994  14.0412599999999994
  19.1471699999999991  19.1471699999999991   8.9353499999999997
  16.5942200000000000   6.3823900000000000   1.2764800000000001
   3.8294299999999999   3.8294299999999999   3.8294299999999999
  14.0412599999999994  19.1471699999999991  11.4883000000000006
   3.8294299999999999   8.9353499999999997  14.0412599999999994
  21.7001300000000015  16.5942200000000000  19.1471699999999991
   6.3823900000000000  21.7001300000000015  16.5942200000000000
  11.4883000000000006  14.0412599999999994  11.4883000000000006
  19.1471699999999991  19.1471699999999991  14.0412599999999994
   6.3823900000000000  21.7001300000000015  11.4883000000000006
  19.1471699999999991   8.9353499999999997   3.8294299999999999
  21.7001300000000015  16.5942200000000000   1.2764800000000001
   3.8294299999999999  14.0412599999999994  19.1471699999999991
  16.5942200000000000  16.5942200000000000   3.8294299999999999
   1.2764800000000001   6.3823900000000000   6.3823900000000000
   1.2764800000000001  16.5942200000000000  14.0412599999999994
  11.4883000000000006  19.1471699999999991   1.2764800000000001
  16.5942200000000000  21.7001300000000015   3.8294299999999999
   3.8294299999999999  14.0412599999999994   8.9353499999999997
   1.2764800000000001   3.8294299999999999  11.4883000000000006
  16.5942200000000000   1.2764800000000001  14.0412599999999994
   6.3823900000000000   3.8294299999999999  14.0412599999999994
  19.1471699999999991  11.4883000000000006  14.0412599999999994
   6.3823900000000000   1.2764800000000001   6.3823900000000000
   8.9353499999999997  21.7001300000000015   3.8294299999999999
  11.4883000000000006   8.9353499999999997  21.7001300000000015
   1.2764800000000001  16.5942200000000000  16.5942200000000000
   3.8294299999999999   6.3823900000000000   8.9353499999999997
   8.9353499999999997   6.3823900000000000   6.3823900000000000
  14.0412599999999994  19.1471699999999991  19.1471699999999991
  19.1471699999999991   6.3823900000000000   1.2764800000000001
  16.5942200000000000  19.1471699999999991   6.3823900000000000
   8.9353499999999997   8.9353499999999997   8.9353499999999997
   6.3823900000000000  11.4883000000000006  19.1471699999999991
   6.3823900000000000  14.0412599999999994  11.4883000000000006
  14.0412599999999994  11.4883000000000006  11.4883000000000006
  16.5942200000000000  14.0412599999999994   6.3823900000000000
   8.9353499999999997   3.8294299999999999  11.4883000000000006
   8.9353499999999997   3.8294299999999999   1.2764800000000001
   6.3823900000000000  14.0412599999999994   8.9353499999999997
   8.9353499999999997   3.8294299999999999  21.7001300000000015
  21.7001300000000015   6.3823900000000000   3.8294299999999999
   6.3823900000000000   6.3823900000000000  16.5942200000000000
  21.7001300000000015  16.5942200000000000   8.9353499999999997
  11.4883000000000006  21.7001300000000015   8.9353499999999997
   3.8294299999999999   3.8294299999999999  11.4883000000000006
  14.0412599999999994  11.4883000000000006   1.2764800000000001
   1.2764800000000001  14.0412599999999994  21.7001300000000015
   6.3823900000000000  16.5942200000000000   8.9353499999999997
  14.0412599999999994   1.2764800000000001   6.3823900000000000
   1.2764800000000001   3.8294299999999999  21.7001300000000015
   6.3823900000000000  19.1471699999999991  21.7001300000000015
  19.1471699999999991  14.0412599999999994  11.4883000000000006
  14.0412599999999994   1.2764800000000001   1.2764800000000001
  16.5942200000000000  14.0412599999999994  11.4883000000000006
   6.3823900000000000  19.1471699999999991   1.2764800000000001
   1.2764800000000001  11.4883000000000006   8.9353499999999997
  19.1471699999999991   1.2764800000000001  14.0412599999999994
   1.2764800000000001   8.9353499999999997  11.4883000000000006
  21.7001300000000015   6.3823900000000000  11.4883000000000006
   8.9353499999999997  11.4883000000000006  16.5942200000000000
   6.3823900000000000   3.8294299999999999  16.5942200000000000
  19.1471699999999991   6.3823900000000000   8.9353499999999997
  21.7001300000000015   3.8294299999999999   6.3823900000000000
  16.5942200000000000  19.1471699999999991  16.5942200000000000
  14.0412599999999994  14.0412599999999994  14.0412599999999994
  19.1471699999999991   1.2764800000000001   1.2764800000000001
  19.1471699999999991  14.0412599999999994  21.7001300000000015
   6.3823900000000000  19.1471699999999991  14.0412599999999994
  14.0412599999999994  14.0412599999999994   8.9353499999999997
   6.3823900000000000  21.7001300000000015  14.0412599999999994
  11.4883000000000006  19.1471699999999991   3.8294299999999999
  21.7001300000000015  11.4883000000000006  14.0412599999999994
   3.8294299999999999  19.1471699999999991   8.9353499999999997
  16.5942200000000000   6.3823900000000000   6.3823900000000000
   3.8294299999999999   8.9353499999999997   1.2764800000000001
   3.8294299999999999   8.9353499999999997   6.3823900000000000
  16.5942200000000000   8.9353499999999997  21.7001300000000015
  14.0412599999999994  19.1471699999999991  21.7001300000000015
  19.1471699999999991  16.5942200000000000  19.1471699999999991
   3.8294299999999999   3.8294299999999999  14.0412599999999994
  11.4883000000000006   3.8294299999999999  14.0412599999999994
   1.2764800000000001   6.3823900000000000   1.2764800000000001
   3.8294299999999999   6.3823900000000000   1.2764800000000001
   3.8294299999999999   6.3823900000000000  16.5942200000000000
   6.3823900000000000  16.5942200000000000  21.7001300000000015
  21.7001300000000015   3.8294299999999999   3.8294299999999999
  21.7001300000000015  21.7001300000000015   3.8294299999999999
   3.8294299999999999   1.2764800000000001  14.0412599999999994
   1.2764800000000001  19.1471699999999991  11.4883000000000006
  21.7001300000000015   3.8294299999999999   1.2764800000000001
   3.8294299999999999  21.7001300000000015   8.9353499999999997
  14.0412599999999994  21.7001300000000015   6.3823900000000000
  11.4883000000000006  19.1471699999999991  11.4883000000000006
  16.5942200000000000  21.7001300000000015  16.5942200000000000
   6.3823900000000000   8.9353499999999997  16.5942200000000000
  19.1471699999999991   8.9353499999999997  19.1471699999999991
   1.2764800000000001   1.2764800000000001  21.7001300000000015
  21.7001300000000015  14.0412599999999994  14.0412599999999994
   1.2764800000000001   8.9353499999999997  19.1471699999999991
   1.2764800000000001  19.1471699999999991   8.9353499999999997
  14.0412599999999994   6.3823900000000000  16.5942200000000000
  16.5942200000000000  16.5942200000000000   8.9353499999999997
   8.9353499999999997  11.4883000000000006  21.7001300000000015
  14.0412599999999994   3.8294299999999999   8.9353499999999997
  14.0412599999999994  19.1471699999999991   8.9353499999999997
  21.7001300000000015   6.3823900000000000  14.0412599999999994
  19.1471699999999991  21.7001300000000015  14.0412599999999994
  21.7001300000000015   8.9353499999999997  21.7001300000000015
  19.1471699999999991   1.2764800000000001  16.5942200000000000
  14.0412599999999994  14.0412599999999994   3.8294299999999999
   3.8294299999999999  19.1471699999999991  21.7001300000000015
  19.1471699999999991  19.1471699999999991  16.5942200000000000
   8.9353499999999997  14.0412599999999994  21.7001300000000015
   8.9353499999999997   3.8294299999999999   6.3823900000000000
  11.4883000000000006   3.8294299999999999  19.1471699999999991
  14.0412599999999994   1.2764800000000001   8.9353499999999997
  21.7001300000000015   6.3823900000000000  16.5942200000000000
   3.8294299999999999  21.7001300000000015  14.0412599999999994
   3.8294299999999999  19.1471699999999991   1.2764800000000001
  14.0412599999999994  14.0412599999999994   1.2764800000000001
   8.9353499999999997  14.0412599999999994  19.1471699999999991
   3.8294299999999999   1.2764800000000001  19.1471699999999991
   8.9353499999999997  16.5942200000000000  16.5942200000000000
   6.3823900000000000  16.5942200000000000   1.2764800000000001
  19.1471699999999991   8.9353499999999997  16.5942200000000000
  14.0412599999999994  21.7001300000000015   1.2764800000000001
   8.9353499999999997  16.5942200000000000   8.9353499999999997
   6.3823900000000000   8.9353499999999997  21.7001300000000015
  19.1471699999999991   1.2764800000000001  21.7001300000000015
  21.7001300000000015   3.8294299999999999  19.1471699999999991
  19.1471699999999991  14.0412599999999994  14.0412599999999994
   6.3823900000000000  11.4883000000000006  16.5942200000000000
   8.9353499999999997   3.8294299999999999  19.1471699999999991
  11.4883000000000006  14.0412599999999994  16.5942200000000000
  21.7001300000000015   1.2764800000000001   1.2764800000000001
  11.4883000000000006   8.9353499999999997  11.4883000000000006
   8.9353499999999997   6.3823900000000000  21.7001300000000015
   1.2764800000000001  14.0412599999999994  16.5942200000000000
   1.2764800000000001  14.0412599999999994   1.2764800000000001
  14.0412599999999994   3.8294299999999999   1.2764800000000001
   1.2764800000000001  19.1471699999999991   1.2764800000000001
  19.1471699999999991  11.4883000000000006   3.8294299999999999
  19.1471699999999991   6.3823900000000000  14.0412599999999994
   3.8294299999999999   1.2764800000000001   1.2764800000000001
  14.0412599999999994  14.0412599999999994  21.7001300000000015
   3.8294299999999999  19.1471699999999991  19.1471699999999991
  19.1471699999999991   1.2764800000000001  11.4883000000000006
  19.1471699999999991   6.3823900000000000   6.3823900000000000
   6.3823900000000000  16.5942200000000000  11.4883000000000006
   1.2764800000000001   3.8294299999999999   6.3823900000000000
   3.8294299999999999  19.1471699999999991  11.4883000000000006
   8.9353499999999997  19.1471699999999991  19.1471699999999991
   1.2764800000000001  19.1471699999999991   6.3823900000000000
  21.7001300000000015  16.5942200000000000   6.3823900000000000
  11.4883000000000006   3.8294299999999999   3.8294299999999999
  21.7001300000000015  14.0412599999999994   1.2764800000000001
   1.2764800000000001  21.7001300000000015   3.8294299999999999
   1.2764800000000001  21.7001300000000015   8.9353499999999997
  11.4883000000000006   6.3823900000000000  16.5942200000000000
   6.3823900000000000  14.0412599999999994  19.1471699999999991
   3.8294299999999999   8.9353499999999997   8.9353499999999997
  19.1471699999999991  21.7001300000000015   6.3823900000000000
  11.4883000000000006  16.5942200000000000   8.9353499999999997
   8.9353499999999997   8.9353499999999997   3.8294299999999999
   1.2764800000000001   6.3823900000000000  21.7001300000000015
  21.7001300000000015  14.0412599999999994   8.9353499999999997
  14.0412599999999994   3.8294299999999999   6.3823900000000000
  14.0412599999999994   1.2764800000000001  11.4883000000000006
   8.9353499999999997   8.9353499999999997   1.2764800000000001
   1.2764800000000001  14.0412599999999994   6.3823900000000000
   3.8294299999999999   3.8294299999999999  19.1471699999999991
   8.9353499999999997  21.7001300000000015  11.4883000000000006
  11.4883000000000006  16.5942200000000000  21.7001300000000015
  14.0412599999999994  11.4883000000000006   6.3823900000000000
   8.9353499999999997   1.2764800000000001   3.8294299999999999
  11.4883000000000006  21.7001300000000015   6.3823900000000000
   6.3823900000000000  16.5942200000000000  16.5942200000000000
   1.2764800000000001  16.5942200000000000   1.2764800000000001
   6.3823900000000000  11.4883000000000006  11.4883000000000006
  11.4883000000000006  19.1471699999999991  14.0412599999999994
  11.4883000000000006   8.9353499999999997  14.0412599999999994
  19.1471699999999991  14.0412599999999994  19.1471699999999991
   6.3823900000000000   1.2764800000000001   1.2764800000000001
   6.3823900000000000   3.8294299999999999   6.3823900000000000
   8.9353499999999997  21.7001300000000015  16.5942200000000000
  21.7001300000000015  21.7001300000000015  16.5942200000000000
   1.2764800000000001  14.0412599999999994   3.8294299999999999
  14.0412599999999994   6.3823900000000000  11.4883000000000006
   6.3823900000000000  16.5942200000000000  19.1471699999999991
  14.0412599999999994  21.7001300000000015  16.5942200000000000
   1.2764800000000001   3.8294299999999999  16.5942200000000000
   3.8294299999999999   1.2764800000000001   3.8294299999999999
   3.8294299999999999   3.8294299999999999  21.7001300000000015
   8.9353499999999997  14.0412599999999994   3.8294299999999999
  16.5942200000000000  19.1471699999999991   8.9353499999999997
   8.9353499999999997  19.1471699999999991  11.4883000000000006
  19.1471699999999991  11.4883000000000006  16.5942200000000000
   8.9353499999999997  11.4883000000000006   8.9353499999999997
  19.1471699999999991  14.0412599999999994   6.3823900000000000
