GeTe
  1.0000000000000000
    19.0666000000000011   0.0000000000000000   0.0000000000000000
     0.0000000000000000  19.0666000000000011   0.0000000000000000
     0.0000000000000000   0.0000000000000000  19.0666000000000011
   Ge   Te
  128  128
Cartesian
   5.9583100000000000   5.9583100000000000  13.1082900000000002
   3.5749900000000001  17.8749399999999987  10.7249599999999994
  10.7249599999999994   3.5749900000000001   5.9583100000000000
   5.9583100000000000  17.8749399999999987   5.9583100000000000
  15.4916099999999997  15.4916099999999997   5.9583100000000000
  15.4916099999999997  17.8749399999999987  17.8749399999999987
   1.1916599999999999  15.4916099999999997   5.9583100000000000
   1.1916599999999999  15.4916099999999997   3.5749900000000001
  13.1082900000000002   3.5749900000000001   8.3416399999999999
  10.7249599999999994   1.1916599999999999  17.8749399999999987
  10.7249599999999994  17.8749399999999987   5.9583100000000000
  15.4916099999999997  10.7249599999999994   1.1916599999999999
  17.8749399999999987   1.1916599999999999  15.4916099999999997
  15.4916099999999997   1.1916599999999999   8.3416399999999999
  15.4916099999999997   5.9583100000000000   5.9583100000000000
  15.4916099999999997   5.9583100000000000  17.8749399999999987
  10.7249599999999994   8.3416399999999999   1.1916599999999999
   8.3416399999999999  13.1082900000000002   5.9583100000000000
  17.8749399999999987  15.4916099999999997   8.3416399999999999
  10.7249599999999994   5.9583100000000000  17.8749399999999987
  17.8749399999999987  17.8749399999999987  17.8749399999999987
   5.9583100000000000  15.4916099999999997  13.1082900000000002
   1.1916599999999999  15.4916099999999997   8.3416399999999999
  17.8749399999999987   1.1916599999999999   5.9583100000000000
  15.4916099999999997   8.3416399999999999   5.9583100000000000
  10.7249599999999994   5.9583100000000000  13.1082900000000002
  10.7249599999999994   3.5749900000000001  13.1082900000000002
   3.5749900000000001  13.1082900000000002  13.1082900000000002
  13.1082900000000002  17.8749399999999987  10.7249599999999994
  10.7249599999999994  15.4916099999999997  17.8749399999999987
   3.5749900000000001  15.4916099999999997   5.9583100000000000
  17.8749399999999987   1.1916599999999999  10.7249599999999994
  15.4916099999999997   1.1916599999999999   3.5749900000000001
   3.5749900000000001  17.8749399999999987   8.3416399999999999
   8.3416399999999999   3.5749900000000001   8.3416399999999999
  15.4916099999999997  15.4916099999999997   3.5749900000000001
  13.1082900000000002   3.5749900000000001  15.4916099999999997
  17.8749399999999987  10.7249599999999994  17.8749399999999987
  15.4916099999999997   5.9583100000000000  13.1082900000000002
  15.4916099999999997   8.3416399999999999   3.5749900000000001
   8.3416399999999999  15.4916099999999997   3.5749900000000001
   1.1916599999999999   8.3416399999999999  17.8749399999999987
  15.4916099999999997   1.1916599999999999  15.4916099999999997
   1.1916599999999999  15.4916099999999997  10.7249599999999994
  13.1082900000000002   8.3416399999999999  13.1082900000000002
   8.3416399999999999  17.8749399999999987   1.1916599999999999
  10.7249599999999994   5.9583100000000000  15.4916099999999997
   3.5749900000000001   1.1916599999999999  13.1082900000000002
   8.3416399999999999  15.4916099999999997   8.3416399999999999
  17.8749399999999987   8.3416399999999999  13.1082900000000002
   1.1916599999999999  13.1082900000000002   1.1916599999999999
  13.1082900000000002  10.7249599999999994   1.1916599999999999
   8.3416399999999999   3.5749900000000001  15.4916099999999997
   5.9583100000000000   1.1916599999999999   5.9583100000000000
   5.9583100000000000   5.9583100000000000  15.4916099999999997
  10.7249599999999994  15.4916099999999997   3.5749900000000001
   8.3416399999999999  13.1082900000000002  13.1082900000000002
   3.5749900000000001   3.5749900000000001  15.4916099999999997
  13.1082900000000002  17.8749399999999987   5.9583100000000000
   5.9583100000000000   1.1916599999999999  15.4916099999999997
  13.1082900000000002   5.9583100000000000  10.7249599999999994
  13.1082900000000002  10.7249599999999994   5.9583100000000000
   8.3416399999999999  10.7249599999999994   3.5749900000000001
  15.4916099999999997  10.7249599999999994  17.8749399999999987
   1.1916599999999999   1.1916599999999999   1.1916599999999999
   3.5749900000000001  15.4916099999999997  17.8749399999999987
  17.8749399999999987   5.9583100000000000  10.7249599999999994
  10.7249599999999994  10.7249599999999994  13.1082900000000002
  10.7249599999999994   5.9583100000000000   1.1916599999999999
   1.1916599999999999   8.3416399999999999  13.1082900000000002
   1.1916599999999999  10.7249599999999994  17.8749399999999987
  13.1082900000000002   1.1916599999999999  17.8749399999999987
  10.7249599999999994   1.1916599999999999   8.3416399999999999
  10.7249599999999994   8.3416399999999999  13.1082900000000002
  13.1082900000000002  13.1082900000000002  17.8749399999999987
  13.1082900000000002   5.9583100000000000   1.1916599999999999
   3.5749900000000001  10.7249599999999994   3.5749900000000001
   8.3416399999999999  15.4916099999999997  15.4916099999999997
  10.7249599999999994   5.9583100000000000   5.9583100000000000
  13.1082900000000002   1.1916599999999999  13.1082900000000002
  13.1082900000000002  15.4916099999999997  17.8749399999999987
   8.3416399999999999   5.9583100000000000  13.1082900000000002
   5.9583100000000000  13.1082900000000002   8.3416399999999999
   5.9583100000000000   3.5749900000000001   3.5749900000000001
  10.7249599999999994   5.9583100000000000  10.7249599999999994
   8.3416399999999999  13.1082900000000002   1.1916599999999999
  13.1082900000000002   5.9583100000000000   3.5749900000000001
  17.8749399999999987  17.8749399999999987   8.3416399999999999
   1.1916599999999999   5.9583100000000000  13.1082900000000002
  10.7249599999999994   1.1916599999999999  13.1082900000000002
   3.5749900000000001   8.3416399999999999  10.7249599999999994
   3.5749900000000001   8.3416399999999999  15.4916099999999997
   1.1916599999999999   3.5749900000000001   3.5749900000000001
   3.5749900000000001  10.7249599999999994   1.1916599999999999
   8.3416399999999999  17.8749399999999987   3.5749900000000001
   1.1916599999999999   1.1916599999999999   3.5749900000000001
   5.9583100000000000  15.4916099999999997   5.9583100000000000
  13.1082900000000002  10.7249599999999994  10.7249599999999994
   1.1916599999999999  10.7249599999999994   1.1916599999999999
   8.3416399999999999  10.7249599999999994  10.7249599999999994
   1.1916599999999999  13.1082900000000002  13.1082900000000002
  17.8749399999999987   1.1916599999999999   3.5749900000000001
   5.9583100000000000   5.9583100000000000   5.9583100000000000
  10.7249599999999994  15.4916099999999997  10.7249599999999994
  15.4916099999999997   1.1916599999999999   1.1916599999999999
  15.4916099999999997  13.1082900000000002  10.7249599999999994
  17.8749399999999987  17.8749399999999987  15.4916099999999997
   3.5749900000000001  13.1082900000000002   8.3416399999999999
  15.4916099999999997  13.1082900000000002  13.1082900000000002
   5.9583100000000000  13.1082900000000002  10.7249599999999994
   1.1916599999999999   1.1916599999999999   5.9583100000000000
   3.5749900000000001   3.5749900000000001   1.1916599999999999
  13.1082900000000002  17.8749399999999987   1.1916599999999999
   8.3416399999999999  15.4916099999999997  13.1082900000000002
   8.3416399999999999  10.7249599999999994   5.9583100000000000
  17.8749399999999987   3.5749900000000001   8.3416399999999999
   5.9583100000000000  17.8749399999999987  13.1082900000000002
  13.1082900000000002  17.8749399999999987   8.3416399999999999
   5.9583100000000000   8.3416399999999999  13.1082900000000002
  10.7249599999999994  13.1082900000000002   5.9583100000000000
  17.8749399999999987  15.4916099999999997  15.4916099999999997
   5.9583100000000000  10.7249599999999994  13.1082900000000002
   3.5749900000000001   8.3416399999999999   1.1916599999999999
  15.4916099999999997   5.9583100000000000   8.3416399999999999
   3.5749900000000001   5.9583100000000000  13.1082900000000002
  15.4916099999999997   1.1916599999999999  17.8749399999999987
   3.5749900000000001   8.3416399999999999  13.1082900000000002
  13.1082900000000002   5.9583100000000000   5.9583100000000000
  10.7249599999999994  13.1082900000000002  13.1082900000000002
  17.8749399999999987   8.3416399999999999  10.7249599999999994
  17.8749399999999987   5.9583100000000000  17.8749399999999987
   3.5749900000000001   1.1916599999999999  10.7249599999999994
   3.5749900000000001  13.1082900000000002  10.7249599999999994
   8.3416399999999999   5.9583100000000000   8.3416399999999999
  15.4916099999999997  17.8749399999999987  15.4916099999999997
   3.5749900000000001  13.1082900000000002  17.8749399999999987
  17.8749399999999987   3.5749900000000001   1.1916599999999999
   3.5749900000000001  15.4916099999999997  10.7249599999999994
   3.5749900000000001   1.1916599999999999   8.3416399999999999
  10.7249599999999994   3.5749900000000001   8.3416399999999999
   3.5749900000000001  17.8749399999999987  13.1082900000000002
  10.7249599999999994  13.1082900000000002   1.1916599999999999
  15.4916099999999997   8.3416399999999999  10.7249599999999994
   5.9583100000000000  10.7249599999999994   8.3416399999999999
  10.7249599999999994   3.5749900000000001   3.5749900000000001
   1.1916599999999999  17.8749399999999987  10.7249599999999994
   1.1916599999999999   1.1916599999999999  10.7249599999999994
  10.7249599999999994   3.5749900000000001   1.1916599999999999
  10.7249599999999994   8.3416399999999999  10.7249599999999994
  15.4916099999999997  17.8749399999999987   5.9583100000000000
   1.1916599999999999  13.1082900000000002   5.9583100000000000
   5.9583100000000000   8.3416399999999999   8.3416399999999999
   3.5749900000000001   5.9583100000000000   1.1916599999999999
  10.7249599999999994   8.3416399999999999  17.8749399999999987
  13.1082900000000002  13.1082900000000002  15.4916099999999997
   8.3416399999999999  17.8749399999999987  15.4916099999999997
  17.8749399999999987  10.7249599999999994  15.4916099999999997
  13.1082900000000002  10.7249599999999994   8.3416399999999999
   3.5749900000000001  17.8749399999999987   5.9583100000000000
  13.1082900000000002   8.3416399999999999   1.1916599999999999
  17.8749399999999987  15.4916099999999997  13.1082900000000002
  10.7249599999999994  17.8749399999999987  17.8749399999999987
   3.5749900000000001  10.7249599999999994  13.1082900000000002
   8.3416399999999999   5.9583100000000000  17.8749399999999987
  17.8749399999999987  13.1082900000000002  13.1082900000000002
  15.4916099999999997   3.5749900000000001  10.7249599999999994
   3.5749900000000001  10.7249599999999994  15.4916099999999997
  17.8749399999999987  13.1082900000000002  17.8749399999999987
   5.9583100000000000   1.1916599999999999  17.8749399999999987
   8.3416399999999999  13.1082900000000002   3.5749900000000001
  13.1082900000000002   8.3416399999999999   8.3416399999999999
  17.8749399999999987   1.1916599999999999  17.8749399999999987
   5.9583100000000000  15.4916099999999997   1.1916599999999999
   5.9583100000000000   5.9583100000000000  10.7249599999999994
   1.1916599999999999   1.1916599999999999  17.8749399999999987
   5.9583100000000000   8.3416399999999999  17.8749399999999987
   3.5749900000000001   3.5749900000000001   3.5749900000000001
   1.1916599999999999   8.3416399999999999   3.5749900000000001
   5.9583100000000000  13.1082900000000002   5.9583100000000000
  15.4916099999999997  17.8749399999999987  10.7249599999999994
  13.1082900000000002  13.1082900000000002   8.3416399999999999
  17.8749399999999987   3.5749900000000001  13.1082900000000002
  13.1082900000000002  10.7249599999999994  17.8749399999999987
  13.1082900000000002  10.7249599999999994  15.4916099999999997
  13.1082900000000002  15.4916099999999997   3.5749900000000001
   5.9583100000000000  15.4916099999999997  17.8749399999999987
   8.3416399999999999   1.1916599999999999   1.1916599999999999
   8.3416399999999999  13.1082900000000002   8.3416399999999999
   8.3416399999999999  17.8749399999999987  17.8749399999999987
  15.4916099999999997  15.4916099999999997  13.1082900000000002
  13.1082900000000002  13.1082900000000002   3.5749900000000001
   5.9583100000000000   3.5749900000000001  17.8749399999999987
   1.1916599999999999  13.1082900000000002   3.5749900000000001
   1.1916599999999999   3.5749900000000001  17.8749399999999987
   8.3416399999999999  17.8749399999999987  13.1082900000000002
   8.3416399999999999   1.1916599999999999  17.8749399999999987
   5.9583100000000000   3.5749900000000001   8.3416399999999999
   1.1916599999999999  15.4916099999999997   1.1916599999999999
   5.9583100000000000   1.1916599999999999  13.1082900000000002
   3.5749900000000001  13.1082900000000002   5.9583100000000000
  17.8749399999999987   8.3416399999999999   5.9583100000000000
   8.3416399999999999  17.8749399999999987   5.9583100000000000
  15.4916099999999997   3.5749900000000001  17.8749399999999987
   3.5749900000000001  15.4916099999999997  15.4916099999999997
  17.8749399999999987  13.1082900000000002   5.9583100000000000
  17.8749399999999987  17.8749399999999987   3.5749900000000001
  10.7249599999999994   1.1916599999999999  10.7249599999999994
  15.4916099999999997  15.4916099999999997   8.3416399999999999
   1.1916599999999999   8.3416399999999999  15.4916099999999997
   5.9583100000000000  10.7249599999999994  10.7249599999999994
  15.4916099999999997   3.5749900000000001  15.4916099999999997
  17.8749399999999987  10.7249599999999994  13.1082900000000002
  17.8749399999999987   8.3416399999999999   8.3416399999999999
  13.1082900000000002   1.1916599999999999   1.1916599999999999
   1.1916599999999999   8.3416399999999999   8.3416399999999999
  10.7249599999999994  13.1082900000000002   8.3416399999999999
   1.1916599999999999   5.9583100000000000  15.4916099999999997
  15.4916099999999997  13.1082900000000002  17.8749399999999987
  15.4916099999999997  13.1082900000000002   1.1916599999999999
   8.3416399999999999   1.1916599999999999  13.1082900000000002
  15.4916099999999997   3.5749900000000001   8.3416399999999999
   3.5749900000000001   3.5749900000000001   8.3416399999999999
   5.9583100000000000  15.4916099999999997   3.5749900000000001
  10.7249599999999994   3.5749900000000001  15.4916099999999997
   3.5749900000000001  13.1082900000000002   3.5749900000000001
   8.3416399999999999   8.3416399999999999  10.7249599999999994
  15.4916099999999997  13.1082900000000002  15.4916099999999997
  13.1082900000000002   5.9583100000000000  15.4916099999999997
  13.1082900000000002  15.4916099999999997  13.1082900000000002
   8.3416399999999999  15.4916099999999997   5.9583100000000000
  10.7249599999999994  10.7249599999999994   8.3416399999999999
   3.5749900000000001   1.1916599999999999  17.8749399999999987
  17.8749399999999987   8.3416399999999999  17.8749399999999987
  13.1082900000000002   8.3416399999999999  15.4916099999999997
  15.4916099999999997  15.4916099999999997  17.8749399999999987
  15.4916099999999997  10.7249599999999994   5.9583100000000000
   3.5749900000000001  15.4916099999999997   3.5749900000000001
  10.7249599999999994  15.4916099999999997   8.3416399999999999
  10.7249599999999994  13.1082900000000002  15.4916099999999997
   5.9583100000000000  10.7249599999999994   1.1916599999999999
   1.1916599999999999  10.7249599999999994  10.7249599999999994
   3.5749900000000001  10.7249599999999994   5.9583100000000000
  10.7249599999999994  15.4916099999999997  15.4916099999999997
   1.1916599999999999   3.5749900000000001  10.7249599999999994
   5.9583100000000000  15.4916099999999997   8.3416399999999999
  17.8749399999999987   1.1916599999999999   8.3416399999999999
  10.7249599999999994   8.3416399999999999   3.5749900000000001
  10.7249599999999994  15.4916099999999997   5.9583100000000000
   1.1916599999999999  17.8749399999999987   5.9583100000000000
   1.1916599999999999  10.7249599999999994  15.4916099999999997
  13.1082900000000002  10.7249599999999994   3.5749900000000001
   1.1916599999999999  13.1082900000000002  15.4916099999999997
  10.7249599999999994  10.7249599999999994  10.7249599999999994
   5.9583100000000000   8.3416399999999999  10.7249599999999994
  13.1082900000000002  17.8749399999999987  17.8749399999999987
  13.1082900000000002   1.1916599999999999   5.9583100000000000
