GeTe
  1.0000000000000000
    24.0224100000000007   0.0000000000000000   0.0000000000000000
     0.0000000000000000  24.0224100000000007   0.0000000000000000
     0.0000000000000000   0.0000000000000000  24.0224100000000007
   Ge   Te
  256  256
Cartesian
   4.0037399999999996   1.3345800000000001  20.0186799999999998
  14.6803600000000003  22.6878300000000017  17.3495199999999983
  20.0186799999999998  14.6803600000000003  22.6878300000000017
  12.0112100000000002  17.3495199999999983  22.6878300000000017
   9.3420500000000004  20.0186799999999998  20.0186799999999998
  22.6878300000000017  14.6803600000000003  17.3495199999999983
   1.3345800000000001   4.0037399999999996   9.3420500000000004
  12.0112100000000002  14.6803600000000003   1.3345800000000001
  14.6803600000000003  22.6878300000000017   9.3420500000000004
   6.6728899999999998  17.3495199999999983   4.0037399999999996
  20.0186799999999998   9.3420500000000004  12.0112100000000002
  22.6878300000000017  12.0112100000000002  12.0112100000000002
   4.0037399999999996   9.3420500000000004   9.3420500000000004
  17.3495199999999983  14.6803600000000003   9.3420500000000004
  12.0112100000000002  14.6803600000000003  17.3495199999999983
  17.3495199999999983   9.3420500000000004  17.3495199999999983
  12.0112100000000002   6.6728899999999998   9.3420500000000004
   4.0037399999999996   1.3345800000000001  14.6803600000000003
  12.0112100000000002   4.0037399999999996  17.3495199999999983
  12.0112100000000002  17.3495199999999983  12.0112100000000002
  14.6803600000000003  12.0112100000000002  14.6803600000000003
  20.0186799999999998   4.0037399999999996  22.6878300000000017
  12.0112100000000002  12.0112100000000002  20.0186799999999998
  22.6878300000000017   9.3420500000000004   1.3345800000000001
   4.0037399999999996   4.0037399999999996  12.0112100000000002
   4.0037399999999996  14.6803600000000003   4.0037399999999996
   6.6728899999999998   9.3420500000000004   6.6728899999999998
  22.6878300000000017  20.0186799999999998   6.6728899999999998
  14.6803600000000003   4.0037399999999996  17.3495199999999983
   1.3345800000000001   6.6728899999999998   6.6728899999999998
   6.6728899999999998  12.0112100000000002  12.0112100000000002
  17.3495199999999983  17.3495199999999983  17.3495199999999983
  20.0186799999999998  12.0112100000000002   9.3420500000000004
  20.0186799999999998   6.6728899999999998  22.6878300000000017
   1.3345800000000001   9.3420500000000004   4.0037399999999996
   6.6728899999999998  20.0186799999999998   1.3345800000000001
  17.3495199999999983  12.0112100000000002   1.3345800000000001
   6.6728899999999998  12.0112100000000002   1.3345800000000001
  17.3495199999999983   6.6728899999999998  20.0186799999999998
   9.3420500000000004   9.3420500000000004  12.0112100000000002
  17.3495199999999983  14.6803600000000003  17.3495199999999983
   6.6728899999999998   9.3420500000000004   4.0037399999999996
  22.6878300000000017   1.3345800000000001   9.3420500000000004
  12.0112100000000002   1.3345800000000001  22.6878300000000017
   4.0037399999999996  12.0112100000000002  17.3495199999999983
   9.3420500000000004   4.0037399999999996   9.3420500000000004
   6.6728899999999998  17.3495199999999983   6.6728899999999998
  22.6878300000000017   9.3420500000000004   9.3420500000000004
   1.3345800000000001  12.0112100000000002   6.6728899999999998
   1.3345800000000001  12.0112100000000002   1.3345800000000001
  20.0186799999999998  14.6803600000000003  12.0112100000000002
  20.0186799999999998  22.6878300000000017   9.3420500000000004
   4.0037399999999996  20.0186799999999998   4.0037399999999996
   6.6728899999999998  14.6803600000000003  20.0186799999999998
  12.0112100000000002  17.3495199999999983  20.0186799999999998
  20.0186799999999998   6.6728899999999998  12.0112100000000002
  17.3495199999999983   9.3420500000000004  12.0112100000000002
  12.0112100000000002   9.3420500000000004   6.6728899999999998
   1.3345800000000001  20.0186799999999998  22.6878300000000017
   4.0037399999999996  12.0112100000000002   1.3345800000000001
   6.6728899999999998  17.3495199999999983   9.3420500000000004
   6.6728899999999998   1.3345800000000001   4.0037399999999996
   1.3345800000000001   9.3420500000000004   6.6728899999999998
  17.3495199999999983  17.3495199999999983  14.6803600000000003
  22.6878300000000017  17.3495199999999983   4.0037399999999996
  17.3495199999999983  14.6803600000000003   1.3345800000000001
   9.3420500000000004  12.0112100000000002  14.6803600000000003
   9.3420500000000004  17.3495199999999983  20.0186799999999998
  14.6803600000000003  17.3495199999999983  20.0186799999999998
  12.0112100000000002   1.3345800000000001  14.6803600000000003
  12.0112100000000002  22.6878300000000017  17.3495199999999983
  17.3495199999999983  12.0112100000000002   9.3420500000000004
   1.3345800000000001  12.0112100000000002   4.0037399999999996
  22.6878300000000017  17.3495199999999983  20.0186799999999998
  20.0186799999999998   9.3420500000000004  17.3495199999999983
  20.0186799999999998   1.3345800000000001   1.3345800000000001
  20.0186799999999998  17.3495199999999983  20.0186799999999998
   9.3420500000000004  20.0186799999999998  14.6803600000000003
   4.0037399999999996  22.6878300000000017  22.6878300000000017
   6.6728899999999998  22.6878300000000017  22.6878300000000017
  20.0186799999999998  22.6878300000000017  12.0112100000000002
  22.6878300000000017   9.3420500000000004  20.0186799999999998
   1.3345800000000001  20.0186799999999998  12.0112100000000002
   1.3345800000000001   6.6728899999999998  20.0186799999999998
  17.3495199999999983  17.3495199999999983   9.3420500000000004
  17.3495199999999983   1.3345800000000001  22.6878300000000017
  14.6803600000000003  20.0186799999999998  14.6803600000000003
  20.0186799999999998  22.6878300000000017  22.6878300000000017
  12.0112100000000002  12.0112100000000002   4.0037399999999996
   6.6728899999999998   1.3345800000000001   9.3420500000000004
   6.6728899999999998  14.6803600000000003  22.6878300000000017
  22.6878300000000017  12.0112100000000002   6.6728899999999998
  14.6803600000000003  17.3495199999999983  22.6878300000000017
  14.6803600000000003  17.3495199999999983  12.0112100000000002
   4.0037399999999996  20.0186799999999998  17.3495199999999983
  20.0186799999999998   4.0037399999999996  14.6803600000000003
  20.0186799999999998   6.6728899999999998  20.0186799999999998
  14.6803600000000003  14.6803600000000003  22.6878300000000017
  22.6878300000000017   9.3420500000000004   4.0037399999999996
  12.0112100000000002  14.6803600000000003  22.6878300000000017
  22.6878300000000017   4.0037399999999996  12.0112100000000002
   6.6728899999999998   1.3345800000000001  22.6878300000000017
   9.3420500000000004  14.6803600000000003   4.0037399999999996
   1.3345800000000001   1.3345800000000001  14.6803600000000003
   9.3420500000000004  22.6878300000000017   4.0037399999999996
  12.0112100000000002  17.3495199999999983   6.6728899999999998
   4.0037399999999996  22.6878300000000017   4.0037399999999996
  12.0112100000000002   6.6728899999999998   1.3345800000000001
  12.0112100000000002   4.0037399999999996  12.0112100000000002
   4.0037399999999996  12.0112100000000002  12.0112100000000002
   4.0037399999999996  17.3495199999999983   4.0037399999999996
   1.3345800000000001  20.0186799999999998   6.6728899999999998
   1.3345800000000001   4.0037399999999996  14.6803600000000003
  22.6878300000000017  14.6803600000000003  12.0112100000000002
  22.6878300000000017  14.6803600000000003  20.0186799999999998
   1.3345800000000001   1.3345800000000001   9.3420500000000004
  14.6803600000000003   9.3420500000000004  14.6803600000000003
  22.6878300000000017   4.0037399999999996   6.6728899999999998
  17.3495199999999983   9.3420500000000004  20.0186799999999998
   1.3345800000000001  14.6803600000000003   6.6728899999999998
   1.3345800000000001  20.0186799999999998   1.3345800000000001
  17.3495199999999983   4.0037399999999996  14.6803600000000003
   4.0037399999999996  20.0186799999999998   1.3345800000000001
   9.3420500000000004  17.3495199999999983  22.6878300000000017
   1.3345800000000001  17.3495199999999983  14.6803600000000003
  12.0112100000000002   6.6728899999999998  22.6878300000000017
   9.3420500000000004   1.3345800000000001  22.6878300000000017
  22.6878300000000017   6.6728899999999998  17.3495199999999983
   4.0037399999999996   6.6728899999999998  12.0112100000000002
  20.0186799999999998  14.6803600000000003   1.3345800000000001
  22.6878300000000017   1.3345800000000001  17.3495199999999983
  12.0112100000000002   1.3345800000000001   9.3420500000000004
   9.3420500000000004   1.3345800000000001   9.3420500000000004
   9.3420500000000004  12.0112100000000002   4.0037399999999996
  12.0112100000000002   9.3420500000000004  20.0186799999999998
  14.6803600000000003  22.6878300000000017  20.0186799999999998
  20.0186799999999998   4.0037399999999996   9.3420500000000004
   9.3420500000000004  20.0186799999999998   1.3345800000000001
   4.0037399999999996  17.3495199999999983   6.6728899999999998
  14.6803600000000003   4.0037399999999996   4.0037399999999996
   4.0037399999999996  22.6878300000000017  20.0186799999999998
   6.6728899999999998   6.6728899999999998   1.3345800000000001
  12.0112100000000002   9.3420500000000004   4.0037399999999996
   6.6728899999999998   9.3420500000000004   1.3345800000000001
  22.6878300000000017  22.6878300000000017  22.6878300000000017
  20.0186799999999998   6.6728899999999998  17.3495199999999983
   4.0037399999999996   4.0037399999999996  20.0186799999999998
  12.0112100000000002  14.6803600000000003   4.0037399999999996
  22.6878300000000017   1.3345800000000001  20.0186799999999998
   1.3345800000000001  22.6878300000000017  17.3495199999999983
   4.0037399999999996  22.6878300000000017  14.6803600000000003
   4.0037399999999996   1.3345800000000001  12.0112100000000002
   1.3345800000000001   4.0037399999999996  12.0112100000000002
   6.6728899999999998   4.0037399999999996  20.0186799999999998
  22.6878300000000017   6.6728899999999998   6.6728899999999998
  20.0186799999999998  20.0186799999999998  14.6803600000000003
  17.3495199999999983   9.3420500000000004  22.6878300000000017
  12.0112100000000002  22.6878300000000017  14.6803600000000003
  14.6803600000000003   6.6728899999999998   9.3420500000000004
  12.0112100000000002  20.0186799999999998  20.0186799999999998
   9.3420500000000004  14.6803600000000003  14.6803600000000003
   9.3420500000000004   6.6728899999999998   4.0037399999999996
  12.0112100000000002  14.6803600000000003  12.0112100000000002
  17.3495199999999983  12.0112100000000002  14.6803600000000003
   4.0037399999999996  17.3495199999999983   1.3345800000000001
   1.3345800000000001  20.0186799999999998   4.0037399999999996
  20.0186799999999998  17.3495199999999983   1.3345800000000001
  12.0112100000000002   6.6728899999999998  20.0186799999999998
  20.0186799999999998  20.0186799999999998   4.0037399999999996
  14.6803600000000003  22.6878300000000017  22.6878300000000017
   9.3420500000000004   4.0037399999999996  17.3495199999999983
  20.0186799999999998  20.0186799999999998   6.6728899999999998
  12.0112100000000002  22.6878300000000017   4.0037399999999996
  12.0112100000000002  14.6803600000000003   6.6728899999999998
  12.0112100000000002  17.3495199999999983  17.3495199999999983
  14.6803600000000003   1.3345800000000001  20.0186799999999998
   1.3345800000000001   6.6728899999999998   4.0037399999999996
  20.0186799999999998  12.0112100000000002  17.3495199999999983
  22.6878300000000017  22.6878300000000017  20.0186799999999998
  22.6878300000000017   1.3345800000000001   1.3345800000000001
  12.0112100000000002  20.0186799999999998   6.6728899999999998
   1.3345800000000001  22.6878300000000017   9.3420500000000004
  17.3495199999999983  17.3495199999999983   4.0037399999999996
  14.6803600000000003  17.3495199999999983   1.3345800000000001
   4.0037399999999996   6.6728899999999998   1.3345800000000001
   6.6728899999999998  12.0112100000000002  20.0186799999999998
   4.0037399999999996   4.0037399999999996   4.0037399999999996
  22.6878300000000017   9.3420500000000004  14.6803600000000003
  20.0186799999999998   6.6728899999999998   4.0037399999999996
  17.3495199999999983  17.3495199999999983   6.6728899999999998
   6.6728899999999998   6.6728899999999998  20.0186799999999998
   9.3420500000000004   9.3420500000000004   1.3345800000000001
  12.0112100000000002   4.0037399999999996   9.3420500000000004
   9.3420500000000004  22.6878300000000017   1.3345800000000001
   4.0037399999999996  17.3495199999999983  22.6878300000000017
  22.6878300000000017   6.6728899999999998  22.6878300000000017
   9.3420500000000004  22.6878300000000017   6.6728899999999998
   9.3420500000000004  20.0186799999999998  17.3495199999999983
   4.0037399999999996  14.6803600000000003  12.0112100000000002
  12.0112100000000002   6.6728899999999998  12.0112100000000002
   4.0037399999999996  20.0186799999999998   6.6728899999999998
  12.0112100000000002   9.3420500000000004   1.3345800000000001
   1.3345800000000001   1.3345800000000001  12.0112100000000002
   1.3345800000000001   6.6728899999999998  22.6878300000000017
  14.6803600000000003   1.3345800000000001   9.3420500000000004
  17.3495199999999983  12.0112100000000002   4.0037399999999996
   1.3345800000000001   6.6728899999999998  12.0112100000000002
  17.3495199999999983   6.6728899999999998   1.3345800000000001
  17.3495199999999983  12.0112100000000002  22.6878300000000017
   6.6728899999999998   4.0037399999999996   4.0037399999999996
  14.6803600000000003   4.0037399999999996  22.6878300000000017
  20.0186799999999998  20.0186799999999998  20.0186799999999998
   1.3345800000000001   1.3345800000000001  22.6878300000000017
  17.3495199999999983  14.6803600000000003  12.0112100000000002
  22.6878300000000017  17.3495199999999983   9.3420500000000004
  20.0186799999999998  14.6803600000000003  17.3495199999999983
  22.6878300000000017   1.3345800000000001   6.6728899999999998
   1.3345800000000001  20.0186799999999998  17.3495199999999983
  14.6803600000000003  20.0186799999999998   6.6728899999999998
  20.0186799999999998  22.6878300000000017  20.0186799999999998
  12.0112100000000002  20.0186799999999998   9.3420500000000004
   9.3420500000000004  12.0112100000000002   1.3345800000000001
  22.6878300000000017   6.6728899999999998   9.3420500000000004
   9.3420500000000004   6.6728899999999998   9.3420500000000004
   1.3345800000000001   6.6728899999999998   1.3345800000000001
  22.6878300000000017  12.0112100000000002   9.3420500000000004
  14.6803600000000003  17.3495199999999983   9.3420500000000004
  20.0186799999999998  12.0112100000000002  22.6878300000000017
   4.0037399999999996   9.3420500000000004   6.6728899999999998
  14.6803600000000003  17.3495199999999983   4.0037399999999996
  12.0112100000000002  20.0186799999999998  12.0112100000000002
  14.6803600000000003   4.0037399999999996   9.3420500000000004
   1.3345800000000001  14.6803600000000003  17.3495199999999983
  12.0112100000000002   6.6728899999999998   4.0037399999999996
  20.0186799999999998   1.3345800000000001   6.6728899999999998
   6.6728899999999998   4.0037399999999996  14.6803600000000003
  17.3495199999999983   6.6728899999999998  22.6878300000000017
   6.6728899999999998  20.0186799999999998  14.6803600000000003
  22.6878300000000017  22.6878300000000017   1.3345800000000001
   4.0037399999999996   6.6728899999999998   6.6728899999999998
   1.3345800000000001  14.6803600000000003  14.6803600000000003
  17.3495199999999983   1.3345800000000001  17.3495199999999983
  14.6803600000000003  12.0112100000000002  22.6878300000000017
  17.3495199999999983  22.6878300000000017   9.3420500000000004
   9.3420500000000004  14.6803600000000003  20.0186799999999998
   1.3345800000000001  12.0112100000000002  12.0112100000000002
  12.0112100000000002  14.6803600000000003  14.6803600000000003
  12.0112100000000002  20.0186799999999998  17.3495199999999983
   1.3345800000000001  17.3495199999999983   6.6728899999999998
   6.6728899999999998  12.0112100000000002  14.6803600000000003
   6.6728899999999998  22.6878300000000017   1.3345800000000001
  17.3495199999999983  14.6803600000000003   6.6728899999999998
  14.6803600000000003  14.6803600000000003   9.3420500000000004
   4.0037399999999996  12.0112100000000002  14.6803600000000003
   6.6728899999999998   1.3345800000000001   6.6728899999999998
   4.0037399999999996  20.0186799999999998  14.6803600000000003
  22.6878300000000017   6.6728899999999998   4.0037399999999996
   6.6728899999999998  22.6878300000000017  20.0186799999999998
   4.0037399999999996  20.0186799999999998   9.3420500000000004
  14.6803600000000003  14.6803600000000003   1.3345800000000001
   4.0037399999999996  22.6878300000000017  17.3495199999999983
  20.0186799999999998  20.0186799999999998  22.6878300000000017
   9.3420500000000004  20.0186799999999998  12.0112100000000002
  12.0112100000000002  12.0112100000000002  22.6878300000000017
  20.0186799999999998   9.3420500000000004   9.3420500000000004
  14.6803600000000003   4.0037399999999996   1.3345800000000001
  17.3495199999999983  17.3495199999999983  20.0186799999999998
  17.3495199999999983  22.6878300000000017   1.3345800000000001
  14.6803600000000003   9.3420500000000004   9.3420500000000004
   9.3420500000000004  12.0112100000000002  20.0186799999999998
   1.3345800000000001  20.0186799999999998  14.6803600000000003
  14.6803600000000003   9.3420500000000004  17.3495199999999983
   1.3345800000000001  20.0186799999999998   9.3420500000000004
  17.3495199999999983  20.0186799999999998  17.3495199999999983
  14.6803600000000003  12.0112100000000002   9.3420500000000004
   1.3345800000000001  14.6803600000000003   1.3345800000000001
  17.3495199999999983   9.3420500000000004   4.0037399999999996
  17.3495199999999983   6.6728899999999998   6.6728899999999998
   9.3420500000000004   1.3345800000000001   1.3345800000000001
  22.6878300000000017  20.0186799999999998   9.3420500000000004
   6.6728899999999998  22.6878300000000017  17.3495199999999983
  14.6803600000000003   6.6728899999999998  20.0186799999999998
  14.6803600000000003   6.6728899999999998  14.6803600000000003
  14.6803600000000003  12.0112100000000002  17.3495199999999983
   9.3420500000000004  22.6878300000000017  17.3495199999999983
   4.0037399999999996   6.6728899999999998  22.6878300000000017
  14.6803600000000003  20.0186799999999998  12.0112100000000002
   4.0037399999999996  14.6803600000000003  17.3495199999999983
   6.6728899999999998  20.0186799999999998   6.6728899999999998
   9.3420500000000004   6.6728899999999998  12.0112100000000002
  20.0186799999999998   4.0037399999999996   6.6728899999999998
  12.0112100000000002  17.3495199999999983   4.0037399999999996
   9.3420500000000004  12.0112100000000002  12.0112100000000002
  12.0112100000000002   6.6728899999999998  17.3495199999999983
   6.6728899999999998   4.0037399999999996   6.6728899999999998
  20.0186799999999998   1.3345800000000001  22.6878300000000017
  20.0186799999999998   9.3420500000000004   4.0037399999999996
  14.6803600000000003   6.6728899999999998  12.0112100000000002
  12.0112100000000002  17.3495199999999983  14.6803600000000003
   4.0037399999999996  14.6803600000000003  20.0186799999999998
   6.6728899999999998   1.3345800000000001  12.0112100000000002
  17.3495199999999983  12.0112100000000002   6.6728899999999998
  14.6803600000000003  14.6803600000000003  17.3495199999999983
  17.3495199999999983  14.6803600000000003  14.6803600000000003
  12.0112100000000002   1.3345800000000001  20.0186799999999998
   9.3420500000000004   1.3345800000000001  12.0112100000000002
  14.6803600000000003   1.3345800000000001  22.6878300000000017
   9.3420500000000004  20.0186799999999998   4.0037399999999996
  22.6878300000000017  14.6803600000000003   1.3345800000000001
  22.6878300000000017   4.0037399999999996   1.3345800000000001
   9.3420500000000004  12.0112100000000002   6.6728899999999998
  14.6803600000000003  17.3495199999999983   6.6728899999999998
  22.6878300000000017  14.6803600000000003  22.6878300000000017
   1.3345800000000001  22.6878300000000017  14.6803600000000003
  12.0112100000000002  12.0112100000000002  12.0112100000000002
   1.3345800000000001   4.0037399999999996  17.3495199999999983
  22.6878300000000017  22.6878300000000017  12.0112100000000002
  14.6803600000000003  17.3495199999999983  14.6803600000000003
  12.0112100000000002  20.0186799999999998  22.6878300000000017
   1.3345800000000001   9.3420500000000004  20.0186799999999998
  22.6878300000000017   1.3345800000000001  12.0112100000000002
   4.0037399999999996   9.3420500000000004  20.0186799999999998
   6.6728899999999998  20.0186799999999998  22.6878300000000017
   4.0037399999999996   4.0037399999999996   6.6728899999999998
  17.3495199999999983  17.3495199999999983  12.0112100000000002
  12.0112100000000002  22.6878300000000017   6.6728899999999998
   1.3345800000000001  14.6803600000000003  20.0186799999999998
  20.0186799999999998  20.0186799999999998   1.3345800000000001
   6.6728899999999998   6.6728899999999998   6.6728899999999998
  14.6803600000000003   9.3420500000000004  22.6878300000000017
   6.6728899999999998  17.3495199999999983  20.0186799999999998
  14.6803600000000003   9.3420500000000004  20.0186799999999998
   9.3420500000000004   1.3345800000000001  20.0186799999999998
   9.3420500000000004  12.0112100000000002   9.3420500000000004
   6.6728899999999998  17.3495199999999983  14.6803600000000003
   6.6728899999999998  14.6803600000000003  12.0112100000000002
  14.6803600000000003   9.3420500000000004   4.0037399999999996
  17.3495199999999983  20.0186799999999998  20.0186799999999998
   9.3420500000000004  14.6803600000000003   9.3420500000000004
  17.3495199999999983   4.0037399999999996  17.3495199999999983
  17.3495199999999983   4.0037399999999996   4.0037399999999996
  17.3495199999999983  20.0186799999999998   4.0037399999999996
   9.3420500000000004   9.3420500000000004  14.6803600000000003
   4.0037399999999996  12.0112100000000002  22.6878300000000017
   9.3420500000000004  14.6803600000000003   6.6728899999999998
  14.6803600000000003   4.0037399999999996  12.0112100000000002
  20.0186799999999998  12.0112100000000002   6.6728899999999998
   4.0037399999999996   1.3345800000000001   1.3345800000000001
  14.6803600000000003   6.6728899999999998   6.6728899999999998
  20.0186799999999998  17.3495199999999983  14.6803600000000003
   9.3420500000000004   9.3420500000000004  17.3495199999999983
   9.3420500000000004   9.3420500000000004  22.6878300000000017
   1.3345800000000001   1.3345800000000001   6.6728899999999998
   1.3345800000000001   4.0037399999999996   1.3345800000000001
  17.3495199999999983  20.0186799999999998  12.0112100000000002
   9.3420500000000004  22.6878300000000017  22.6878300000000017
   6.6728899999999998  22.6878300000000017   6.6728899999999998
  14.6803600000000003  12.0112100000000002   4.0037399999999996
  22.6878300000000017  17.3495199999999983  14.6803600000000003
   4.0037399999999996  14.6803600000000003   9.3420500000000004
  14.6803600000000003  20.0186799999999998  17.3495199999999983
  12.0112100000000002  17.3495199999999983   9.3420500000000004
  17.3495199999999983   1.3345800000000001   4.0037399999999996
   1.3345800000000001   4.0037399999999996  20.0186799999999998
   9.3420500000000004  20.0186799999999998   9.3420500000000004
   1.3345800000000001  14.6803600000000003  22.6878300000000017
  17.3495199999999983   6.6728899999999998  12.0112100000000002
  17.3495199999999983  12.0112100000000002  20.0186799999999998
  20.0186799999999998   4.0037399999999996  12.0112100000000002
  22.6878300000000017   9.3420500000000004   6.6728899999999998
  17.3495199999999983   1.3345800000000001  12.0112100000000002
  22.6878300000000017   1.3345800000000001   4.0037399999999996
  22.6878300000000017  12.0112100000000002  17.3495199999999983
  22.6878300000000017   4.0037399999999996  20.0186799999999998
   9.3420500000000004   6.6728899999999998   6.6728899999999998
   9.3420500000000004   4.0037399999999996  20.0186799999999998
  14.6803600000000003  20.0186799999999998  22.6878300000000017
  22.6878300000000017   9.3420500000000004  22.6878300000000017
  17.3495199999999983  20.0186799999999998   6.6728899999999998
   4.0037399999999996  12.0112100000000002   4.0037399999999996
  17.3495199999999983   4.0037399999999996  22.6878300000000017
   9.3420500000000004  14.6803600000000003   1.3345800000000001
  12.0112100000000002   1.3345800000000001   6.6728899999999998
   1.3345800000000001  14.6803600000000003  12.0112100000000002
   1.3345800000000001  17.3495199999999983  12.0112100000000002
   6.6728899999999998  20.0186799999999998   4.0037399999999996
  20.0186799999999998  12.0112100000000002  14.6803600000000003
  14.6803600000000003   4.0037399999999996   6.6728899999999998
   9.3420500000000004  17.3495199999999983  17.3495199999999983
   4.0037399999999996  12.0112100000000002   6.6728899999999998
  14.6803600000000003  14.6803600000000003   4.0037399999999996
   1.3345800000000001  20.0186799999999998  20.0186799999999998
   4.0037399999999996   4.0037399999999996  14.6803600000000003
   4.0037399999999996  17.3495199999999983  17.3495199999999983
   6.6728899999999998  20.0186799999999998  12.0112100000000002
   1.3345800000000001  17.3495199999999983   1.3345800000000001
  20.0186799999999998   9.3420500000000004  20.0186799999999998
   4.0037399999999996   6.6728899999999998  14.6803600000000003
   4.0037399999999996  17.3495199999999983  14.6803600000000003
   9.3420500000000004  17.3495199999999983  14.6803600000000003
   4.0037399999999996  17.3495199999999983  20.0186799999999998
  14.6803600000000003   1.3345800000000001   4.0037399999999996
  22.6878300000000017  17.3495199999999983   6.6728899999999998
   6.6728899999999998  14.6803600000000003  17.3495199999999983
  20.0186799999999998   1.3345800000000001  17.3495199999999983
  22.6878300000000017  17.3495199999999983  17.3495199999999983
  20.0186799999999998   1.3345800000000001  14.6803600000000003
   9.3420500000000004   4.0037399999999996  22.6878300000000017
  20.0186799999999998   9.3420500000000004  22.6878300000000017
   9.3420500000000004   9.3420500000000004   6.6728899999999998
  14.6803600000000003  22.6878300000000017  14.6803600000000003
  20.0186799999999998  12.0112100000000002   1.3345800000000001
  12.0112100000000002   9.3420500000000004   9.3420500000000004
  17.3495199999999983   6.6728899999999998   9.3420500000000004
  22.6878300000000017  22.6878300000000017   4.0037399999999996
   6.6728899999999998   9.3420500000000004  14.6803600000000003
  22.6878300000000017   4.0037399999999996   9.3420500000000004
   9.3420500000000004  12.0112100000000002  17.3495199999999983
  14.6803600000000003  14.6803600000000003  12.0112100000000002
   4.0037399999999996   1.3345800000000001   6.6728899999999998
  12.0112100000000002   6.6728899999999998   6.6728899999999998
  22.6878300000000017   1.3345800000000001  22.6878300000000017
  14.6803600000000003   1.3345800000000001  14.6803600000000003
   4.0037399999999996   9.3420500000000004   1.3345800000000001
   4.0037399999999996  14.6803600000000003   1.3345800000000001
  22.6878300000000017  14.6803600000000003   6.6728899999999998
   6.6728899999999998   4.0037399999999996   1.3345800000000001
  20.0186799999999998  14.6803600000000003  14.6803600000000003
   4.0037399999999996  20.0186799999999998  20.0186799999999998
  22.6878300000000017  17.3495199999999983  22.6878300000000017
   6.6728899999999998   6.6728899999999998  12.0112100000000002
   6.6728899999999998  22.6878300000000017   9.3420500000000004
  17.3495199999999983  22.6878300000000017  22.6878300000000017
   1.3345800000000001  17.3495199999999983  17.3495199999999983
   6.6728899999999998   4.0037399999999996  22.6878300000000017
  14.6803600000000003   1.3345800000000001  17.3495199999999983
  22.6878300000000017   6.6728899999999998  14.6803600000000003
  20.0186799999999998   1.3345800000000001  12.0112100000000002
   1.3345800000000001  17.3495199999999983   9.3420500000000004
   9.3420500000000004   6.6728899999999998  20.0186799999999998
  22.6878300000000017  22.6878300000000017  17.3495199999999983
   6.6728899999999998   9.3420500000000004   9.3420500000000004
   6.6728899999999998  22.6878300000000017  12.0112100000000002
  14.6803600000000003   4.0037399999999996  20.0186799999999998
   1.3345800000000001   1.3345800000000001  20.0186799999999998
   9.3420500000000004   4.0037399999999996  14.6803600000000003
  14.6803600000000003   9.3420500000000004   1.3345800000000001
   9.3420500000000004   4.0037399999999996   6.6728899999999998
   4.0037399999999996   6.6728899999999998  20.0186799999999998
   6.6728899999999998  17.3495199999999983   1.3345800000000001
   9.3420500000000004  17.3495199999999983   9.3420500000000004
  20.0186799999999998   1.3345800000000001   4.0037399999999996
  20.0186799999999998  22.6878300000000017  17.3495199999999983
  20.0186799999999998   9.3420500000000004   1.3345800000000001
  22.6878300000000017  12.0112100000000002  22.6878300000000017
  17.3495199999999983  20.0186799999999998  22.6878300000000017
   9.3420500000000004   6.6728899999999998  17.3495199999999983
   6.6728899999999998  12.0112100000000002  22.6878300000000017
  20.0186799999999998   6.6728899999999998  14.6803600000000003
   6.6728899999999998   1.3345800000000001  17.3495199999999983
  22.6878300000000017  14.6803600000000003  14.6803600000000003
   1.3345800000000001  17.3495199999999983   4.0037399999999996
  20.0186799999999998  12.0112100000000002   4.0037399999999996
   6.6728899999999998   9.3420500000000004  12.0112100000000002