GeTe
  1.0000000000000000
    12.0112100000000002   0.0000000000000000   0.0000000000000000
     0.0000000000000000  12.0112100000000002   0.0000000000000000
     0.0000000000000000   0.0000000000000000  12.0112100000000002
  Ge  Te
  32  32
Cartesian
   6.0056000000000003   6.0056000000000003   1.2011200000000000
   8.4078400000000002   6.0056000000000003   8.4078400000000002
  10.8100900000000006   8.4078400000000002  10.8100900000000006
   6.0056000000000003   8.4078400000000002   8.4078400000000002
   3.6033599999999999   3.6033599999999999   6.0056000000000003
   1.2011200000000000   1.2011200000000000   1.2011200000000000
   1.2011200000000000   8.4078400000000002   3.6033599999999999
   6.0056000000000003   6.0056000000000003   8.4078400000000002
   3.6033599999999999   8.4078400000000002   6.0056000000000003
   3.6033599999999999  10.8100900000000006   8.4078400000000002
   1.2011200000000000   1.2011200000000000   6.0056000000000003
   3.6033599999999999   1.2011200000000000   8.4078400000000002
   1.2011200000000000  10.8100900000000006   6.0056000000000003
  10.8100900000000006  10.8100900000000006   6.0056000000000003
   8.4078400000000002   8.4078400000000002   1.2011200000000000
  10.8100900000000006   6.0056000000000003  10.8100900000000006
  10.8100900000000006   6.0056000000000003   8.4078400000000002
   8.4078400000000002   1.2011200000000000   6.0056000000000003
  10.8100900000000006   6.0056000000000003   1.2011200000000000
   8.4078400000000002  10.8100900000000006  10.8100900000000006
   3.6033599999999999   8.4078400000000002   8.4078400000000002
   8.4078400000000002  10.8100900000000006   3.6033599999999999
   3.6033599999999999   6.0056000000000003  10.8100900000000006
   6.0056000000000003  10.8100900000000006  10.8100900000000006
   8.4078400000000002   6.0056000000000003   6.0056000000000003
  10.8100900000000006   3.6033599999999999  10.8100900000000006
   6.0056000000000003   1.2011200000000000   3.6033599999999999
   1.2011200000000000   3.6033599999999999   1.2011200000000000
  10.8100900000000006   8.4078400000000002   8.4078400000000002
   8.4078400000000002   8.4078400000000002  10.8100900000000006
   6.0056000000000003   6.0056000000000003   3.6033599999999999
   3.6033599999999999   3.6033599999999999   1.2011200000000000
   6.0056000000000003   8.4078400000000002   3.6033599999999999
   1.2011200000000000   6.0056000000000003  10.8100900000000006
   3.6033599999999999   6.0056000000000003   8.4078400000000002
   6.0056000000000003   3.6033599999999999   1.2011200000000000
   3.6033599999999999   8.4078400000000002   3.6033599999999999
   6.0056000000000003  10.8100900000000006   8.4078400000000002
   8.4078400000000002   3.6033599999999999   6.0056000000000003
   8.4078400000000002   1.2011200000000000   1.2011200000000000
   8.4078400000000002   3.6033599999999999   1.2011200000000000
   6.0056000000000003  10.8100900000000006   3.6033599999999999
   1.2011200000000000  10.8100900000000006  10.8100900000000006
   8.4078400000000002   3.6033599999999999  10.8100900000000006
  10.8100900000000006   8.4078400000000002   3.6033599999999999
   1.2011200000000000  10.8100900000000006   1.2011200000000000
  10.8100900000000006   1.2011200000000000  10.8100900000000006
   1.2011200000000000   8.4078400000000002  10.8100900000000006
  10.8100900000000006   3.6033599999999999   1.2011200000000000
   6.0056000000000003   1.2011200000000000   1.2011200000000000
  10.8100900000000006  10.8100900000000006  10.8100900000000006
   8.4078400000000002   6.0056000000000003  10.8100900000000006
   1.2011200000000000   6.0056000000000003   3.6033599999999999
   3.6033599999999999   8.4078400000000002   1.2011200000000000
  10.8100900000000006   6.0056000000000003   3.6033599999999999
  10.8100900000000006   6.0056000000000003   6.0056000000000003
   8.4078400000000002  10.8100900000000006   1.2011200000000000
  10.8100900000000006  10.8100900000000006   8.4078400000000002
   6.0056000000000003   3.6033599999999999  10.8100900000000006
   6.0056000000000003   3.6033599999999999   6.0056000000000003
  10.8100900000000006   3.6033599999999999   6.0056000000000003
   6.0056000000000003  10.8100900000000006   6.0056000000000003
   8.4078400000000002  10.8100900000000006   6.0056000000000003
   3.6033599999999999  10.8100900000000006   3.6033599999999999
