GeTe
  1.0000000000000000
    15.1331699999999998   0.0000000000000000   0.0000000000000000
     0.0000000000000000  15.1331699999999998   0.0000000000000000
     0.0000000000000000   0.0000000000000000  15.1331699999999998
  Ge  Te
  64  64
Cartesian
   1.0809400000000000  11.8903499999999998  14.0522299999999998
   1.0809400000000000   7.5665899999999997   5.4047000000000001
   7.5665899999999997  14.0522299999999998   3.2428200000000000
  14.0522299999999998  14.0522299999999998  14.0522299999999998
   1.0809400000000000   9.7284699999999997   5.4047000000000001
   9.7284699999999997   3.2428200000000000  14.0522299999999998
   5.4047000000000001   3.2428200000000000  14.0522299999999998
   1.0809400000000000   5.4047000000000001   7.5665899999999997
   1.0809400000000000   1.0809400000000000   3.2428200000000000
   3.2428200000000000   1.0809400000000000   7.5665899999999997
   3.2428200000000000   3.2428200000000000   9.7284699999999997
   9.7284699999999997   9.7284699999999997   5.4047000000000001
  14.0522299999999998   5.4047000000000001   1.0809400000000000
   5.4047000000000001   3.2428200000000000   3.2428200000000000
  14.0522299999999998   5.4047000000000001   3.2428200000000000
  11.8903499999999998   1.0809400000000000   7.5665899999999997
  14.0522299999999998  14.0522299999999998   1.0809400000000000
   3.2428200000000000   7.5665899999999997   3.2428200000000000
   3.2428200000000000   7.5665899999999997   7.5665899999999997
   9.7284699999999997   1.0809400000000000   5.4047000000000001
   5.4047000000000001   5.4047000000000001  14.0522299999999998
   3.2428200000000000   9.7284699999999997   7.5665899999999997
  11.8903499999999998   3.2428200000000000  14.0522299999999998
   3.2428200000000000   3.2428200000000000   7.5665899999999997
   9.7284699999999997   1.0809400000000000   3.2428200000000000
  14.0522299999999998  14.0522299999999998   5.4047000000000001
   7.5665899999999997  11.8903499999999998  14.0522299999999998
  14.0522299999999998  11.8903499999999998   5.4047000000000001
   5.4047000000000001   5.4047000000000001   5.4047000000000001
   1.0809400000000000   5.4047000000000001   9.7284699999999997
   7.5665899999999997   3.2428200000000000   9.7284699999999997
   9.7284699999999997   3.2428200000000000  11.8903499999999998
   5.4047000000000001   3.2428200000000000   1.0809400000000000
   9.7284699999999997   1.0809400000000000   7.5665899999999997
   5.4047000000000001   7.5665899999999997  14.0522299999999998
  14.0522299999999998   9.7284699999999997  14.0522299999999998
   9.7284699999999997  11.8903499999999998   1.0809400000000000
   5.4047000000000001   5.4047000000000001   1.0809400000000000
  11.8903499999999998   3.2428200000000000   3.2428200000000000
   3.2428200000000000   3.2428200000000000  14.0522299999999998
  11.8903499999999998   5.4047000000000001   5.4047000000000001
  14.0522299999999998   9.7284699999999997  11.8903499999999998
   3.2428200000000000  11.8903499999999998   1.0809400000000000
   1.0809400000000000   3.2428200000000000   5.4047000000000001
   1.0809400000000000   5.4047000000000001   1.0809400000000000
   7.5665899999999997   1.0809400000000000   7.5665899999999997
   5.4047000000000001  14.0522299999999998   9.7284699999999997
   1.0809400000000000  11.8903499999999998   1.0809400000000000
   1.0809400000000000   7.5665899999999997   1.0809400000000000
   3.2428200000000000   3.2428200000000000  11.8903499999999998
   5.4047000000000001  14.0522299999999998   3.2428200000000000
   5.4047000000000001   3.2428200000000000   5.4047000000000001
   1.0809400000000000   9.7284699999999997  11.8903499999999998
   1.0809400000000000   9.7284699999999997   3.2428200000000000
  11.8903499999999998   1.0809400000000000  11.8903499999999998
   3.2428200000000000  11.8903499999999998  14.0522299999999998
   3.2428200000000000  11.8903499999999998   5.4047000000000001
   3.2428200000000000   5.4047000000000001   3.2428200000000000
   1.0809400000000000   5.4047000000000001   5.4047000000000001
  11.8903499999999998   7.5665899999999997   7.5665899999999997
   1.0809400000000000  14.0522299999999998   9.7284699999999997
  14.0522299999999998   5.4047000000000001   5.4047000000000001
  14.0522299999999998   3.2428200000000000   9.7284699999999997
   7.5665899999999997   9.7284699999999997   7.5665899999999997
  14.0522299999999998   3.2428200000000000   7.5665899999999997
   3.2428200000000000   5.4047000000000001   1.0809400000000000
   1.0809400000000000   7.5665899999999997   7.5665899999999997
   3.2428200000000000   5.4047000000000001   7.5665899999999997
   5.4047000000000001   1.0809400000000000   3.2428200000000000
   5.4047000000000001   9.7284699999999997   5.4047000000000001
   1.0809400000000000  14.0522299999999998  11.8903499999999998
  14.0522299999999998   7.5665899999999997   7.5665899999999997
   9.7284699999999997  11.8903499999999998   3.2428200000000000
   1.0809400000000000   1.0809400000000000   5.4047000000000001
   3.2428200000000000   9.7284699999999997   3.2428200000000000
   5.4047000000000001   7.5665899999999997   5.4047000000000001
   1.0809400000000000  11.8903499999999998  11.8903499999999998
  14.0522299999999998   5.4047000000000001   7.5665899999999997
   7.5665899999999997   9.7284699999999997   3.2428200000000000
   9.7284699999999997   1.0809400000000000   9.7284699999999997
   9.7284699999999997   7.5665899999999997  11.8903499999999998
   1.0809400000000000   3.2428200000000000  14.0522299999999998
   1.0809400000000000   1.0809400000000000   1.0809400000000000
   3.2428200000000000  14.0522299999999998   9.7284699999999997
   1.0809400000000000   5.4047000000000001   3.2428200000000000
   5.4047000000000001  11.8903499999999998  11.8903499999999998
   9.7284699999999997   5.4047000000000001   3.2428200000000000
   5.4047000000000001   9.7284699999999997   1.0809400000000000
  14.0522299999999998   1.0809400000000000   9.7284699999999997
  11.8903499999999998   5.4047000000000001   9.7284699999999997
   5.4047000000000001  14.0522299999999998  11.8903499999999998
  11.8903499999999998  14.0522299999999998   3.2428200000000000
  11.8903499999999998   3.2428200000000000  11.8903499999999998
  14.0522299999999998   1.0809400000000000  14.0522299999999998
   9.7284699999999997   5.4047000000000001   1.0809400000000000
   7.5665899999999997   1.0809400000000000   9.7284699999999997
  11.8903499999999998   3.2428200000000000   7.5665899999999997
   9.7284699999999997   5.4047000000000001   9.7284699999999997
   9.7284699999999997  11.8903499999999998  14.0522299999999998
  11.8903499999999998   7.5665899999999997   1.0809400000000000
   9.7284699999999997  11.8903499999999998   9.7284699999999997
  11.8903499999999998   9.7284699999999997   3.2428200000000000
   9.7284699999999997   9.7284699999999997  14.0522299999999998
   1.0809400000000000  14.0522299999999998  14.0522299999999998
   9.7284699999999997   9.7284699999999997   1.0809400000000000
   1.0809400000000000  11.8903499999999998   9.7284699999999997
   7.5665899999999997  11.8903499999999998   7.5665899999999997
   7.5665899999999997  14.0522299999999998  14.0522299999999998
   5.4047000000000001   5.4047000000000001   7.5665899999999997
  14.0522299999999998  11.8903499999999998  14.0522299999999998
   5.4047000000000001   5.4047000000000001  11.8903499999999998
  11.8903499999999998  11.8903499999999998   9.7284699999999997
  11.8903499999999998   5.4047000000000001   7.5665899999999997
  14.0522299999999998  14.0522299999999998   3.2428200000000000
   1.0809400000000000  14.0522299999999998   7.5665899999999997
  14.0522299999999998   9.7284699999999997   1.0809400000000000
   3.2428200000000000   7.5665899999999997   1.0809400000000000
  14.0522299999999998   7.5665899999999997   5.4047000000000001
   1.0809400000000000   5.4047000000000001  11.8903499999999998
   5.4047000000000001   1.0809400000000000  14.0522299999999998
  11.8903499999999998   7.5665899999999997   9.7284699999999997
  11.8903499999999998   1.0809400000000000  14.0522299999999998
   7.5665899999999997  11.8903499999999998   5.4047000000000001
   7.5665899999999997  11.8903499999999998   9.7284699999999997
   5.4047000000000001  11.8903499999999998  14.0522299999999998
   3.2428200000000000   9.7284699999999997  14.0522299999999998
   7.5665899999999997   7.5665899999999997   7.5665899999999997
  11.8903499999999998   9.7284699999999997   5.4047000000000001
