GeTe
  1.0000000000000000
    27.4987999999999992   0.0000000000000000   0.0000000000000000
     0.0000000000000000  27.4987999999999992   0.0000000000000000
     0.0000000000000000   0.0000000000000000  27.4987999999999992
   Ge   Te
  384  384
Cartesian
   3.7498399999999998  11.2495100000000008  18.7491799999999991
   3.7498399999999998   8.7496200000000002   8.7496200000000002
   6.2497299999999996  21.2490699999999997  18.7491799999999991
  18.7491799999999991   3.7498399999999998  11.2495100000000008
  23.7489600000000003   3.7498399999999998  16.2492899999999985
  18.7491799999999991  21.2490699999999997   8.7496200000000002
   3.7498399999999998   8.7496200000000002   3.7498399999999998
   1.2499499999999999  21.2490699999999997   1.2499499999999999
  21.2490699999999997   1.2499499999999999   6.2497299999999996
   8.7496200000000002   3.7498399999999998   6.2497299999999996
  26.2488500000000009   6.2497299999999996  13.7493999999999996
  26.2488500000000009   3.7498399999999998  26.2488500000000009
  23.7489600000000003  18.7491799999999991   8.7496200000000002
   1.2499499999999999  18.7491799999999991  23.7489600000000003
  26.2488500000000009   6.2497299999999996   3.7498399999999998
   3.7498399999999998   1.2499499999999999  23.7489600000000003
  26.2488500000000009  23.7489600000000003  23.7489600000000003
  16.2492899999999985  11.2495100000000008  21.2490699999999997
  23.7489600000000003  11.2495100000000008  11.2495100000000008
   1.2499499999999999  21.2490699999999997   6.2497299999999996
   3.7498399999999998  18.7491799999999991  18.7491799999999991
  16.2492899999999985  13.7493999999999996  16.2492899999999985
  11.2495100000000008  11.2495100000000008  21.2490699999999997
   6.2497299999999996  21.2490699999999997   3.7498399999999998
  13.7493999999999996  11.2495100000000008  11.2495100000000008
  11.2495100000000008  16.2492899999999985   6.2497299999999996
   1.2499499999999999   1.2499499999999999  21.2490699999999997
  26.2488500000000009  21.2490699999999997   8.7496200000000002
  13.7493999999999996  16.2492899999999985  11.2495100000000008
  26.2488500000000009  18.7491799999999991  18.7491799999999991
  23.7489600000000003   3.7498399999999998   6.2497299999999996
   6.2497299999999996   3.7498399999999998  26.2488500000000009
   8.7496200000000002  18.7491799999999991  23.7489600000000003
   6.2497299999999996  13.7493999999999996  13.7493999999999996
  16.2492899999999985  11.2495100000000008   1.2499499999999999
  21.2490699999999997   1.2499499999999999   3.7498399999999998
  11.2495100000000008  23.7489600000000003  26.2488500000000009
  26.2488500000000009   3.7498399999999998  23.7489600000000003
   1.2499499999999999  26.2488500000000009   8.7496200000000002
  18.7491799999999991   8.7496200000000002  13.7493999999999996
   8.7496200000000002   6.2497299999999996   8.7496200000000002
  16.2492899999999985   8.7496200000000002   1.2499499999999999
  18.7491799999999991   6.2497299999999996  11.2495100000000008
  18.7491799999999991  23.7489600000000003   6.2497299999999996
   8.7496200000000002   6.2497299999999996  13.7493999999999996
  16.2492899999999985  13.7493999999999996  26.2488500000000009
  11.2495100000000008  11.2495100000000008  18.7491799999999991
   1.2499499999999999   3.7498399999999998   3.7498399999999998
  21.2490699999999997   8.7496200000000002   8.7496200000000002
  18.7491799999999991  13.7493999999999996  13.7493999999999996
   6.2497299999999996   6.2497299999999996  26.2488500000000009
  13.7493999999999996  21.2490699999999997   6.2497299999999996
   8.7496200000000002  26.2488500000000009   3.7498399999999998
  21.2490699999999997  26.2488500000000009  18.7491799999999991
  11.2495100000000008  11.2495100000000008   6.2497299999999996
   1.2499499999999999  13.7493999999999996   6.2497299999999996
   1.2499499999999999   6.2497299999999996  11.2495100000000008
  21.2490699999999997  13.7493999999999996   6.2497299999999996
   3.7498399999999998  16.2492899999999985  21.2490699999999997
  18.7491799999999991   6.2497299999999996  21.2490699999999997
   3.7498399999999998  26.2488500000000009  13.7493999999999996
  11.2495100000000008   6.2497299999999996   1.2499499999999999
  11.2495100000000008  13.7493999999999996  18.7491799999999991
  16.2492899999999985  13.7493999999999996  13.7493999999999996
  13.7493999999999996  23.7489600000000003   8.7496200000000002
  13.7493999999999996  11.2495100000000008  21.2490699999999997
  23.7489600000000003   8.7496200000000002  13.7493999999999996
   8.7496200000000002  21.2490699999999997   1.2499499999999999
  18.7491799999999991   3.7498399999999998  21.2490699999999997
   1.2499499999999999   1.2499499999999999  23.7489600000000003
  18.7491799999999991  23.7489600000000003  21.2490699999999997
  21.2490699999999997  23.7489600000000003   1.2499499999999999
  21.2490699999999997   1.2499499999999999  18.7491799999999991
   8.7496200000000002  11.2495100000000008  23.7489600000000003
   3.7498399999999998  16.2492899999999985   1.2499499999999999
  18.7491799999999991   1.2499499999999999  13.7493999999999996
  11.2495100000000008  13.7493999999999996  23.7489600000000003
  23.7489600000000003  23.7489600000000003  23.7489600000000003
  13.7493999999999996  13.7493999999999996  21.2490699999999997
  26.2488500000000009   8.7496200000000002  16.2492899999999985
  16.2492899999999985  18.7491799999999991   6.2497299999999996
  26.2488500000000009   1.2499499999999999  21.2490699999999997
   6.2497299999999996   6.2497299999999996   6.2497299999999996
   6.2497299999999996   8.7496200000000002   1.2499499999999999
  11.2495100000000008  18.7491799999999991   1.2499499999999999
  23.7489600000000003   6.2497299999999996  23.7489600000000003
  13.7493999999999996   3.7498399999999998  18.7491799999999991
  13.7493999999999996  13.7493999999999996  13.7493999999999996
  26.2488500000000009  13.7493999999999996   3.7498399999999998
   6.2497299999999996  11.2495100000000008   1.2499499999999999
  26.2488500000000009  16.2492899999999985  21.2490699999999997
   6.2497299999999996   1.2499499999999999   6.2497299999999996
   3.7498399999999998   6.2497299999999996  18.7491799999999991
   1.2499499999999999   8.7496200000000002  13.7493999999999996
  18.7491799999999991  26.2488500000000009   8.7496200000000002
  21.2490699999999997  13.7493999999999996   8.7496200000000002
  13.7493999999999996  21.2490699999999997   3.7498399999999998
   8.7496200000000002  23.7489600000000003   1.2499499999999999
  18.7491799999999991   1.2499499999999999  26.2488500000000009
  21.2490699999999997  21.2490699999999997  26.2488500000000009
   1.2499499999999999  23.7489600000000003  23.7489600000000003
   3.7498399999999998  11.2495100000000008   3.7498399999999998
   8.7496200000000002  26.2488500000000009  13.7493999999999996
  16.2492899999999985   1.2499499999999999  13.7493999999999996
  23.7489600000000003   1.2499499999999999   6.2497299999999996
  23.7489600000000003   6.2497299999999996   3.7498399999999998
   8.7496200000000002  18.7491799999999991   6.2497299999999996
  13.7493999999999996  18.7491799999999991   8.7496200000000002
   1.2499499999999999  23.7489600000000003  21.2490699999999997
   6.2497299999999996  18.7491799999999991  11.2495100000000008
  26.2488500000000009   6.2497299999999996  21.2490699999999997
  21.2490699999999997   1.2499499999999999   8.7496200000000002
  11.2495100000000008  11.2495100000000008  11.2495100000000008
  16.2492899999999985   1.2499499999999999   6.2497299999999996
   6.2497299999999996  13.7493999999999996  21.2490699999999997
  16.2492899999999985  13.7493999999999996  18.7491799999999991
   6.2497299999999996  21.2490699999999997   6.2497299999999996
  21.2490699999999997  26.2488500000000009  21.2490699999999997
  21.2490699999999997  18.7491799999999991  16.2492899999999985
   3.7498399999999998   1.2499499999999999  18.7491799999999991
  18.7491799999999991  21.2490699999999997  23.7489600000000003
  23.7489600000000003   8.7496200000000002  16.2492899999999985
   3.7498399999999998  13.7493999999999996  23.7489600000000003
  21.2490699999999997   6.2497299999999996  21.2490699999999997
   8.7496200000000002  18.7491799999999991  11.2495100000000008
   8.7496200000000002  23.7489600000000003  26.2488500000000009
   6.2497299999999996  21.2490699999999997  21.2490699999999997
   8.7496200000000002  13.7493999999999996   1.2499499999999999
  16.2492899999999985  16.2492899999999985   3.7498399999999998
  23.7489600000000003  18.7491799999999991  18.7491799999999991
   6.2497299999999996   1.2499499999999999  11.2495100000000008
  18.7491799999999991  23.7489600000000003  26.2488500000000009
  16.2492899999999985   6.2497299999999996  21.2490699999999997
   8.7496200000000002   6.2497299999999996  26.2488500000000009
  11.2495100000000008   8.7496200000000002  16.2492899999999985
  21.2490699999999997  21.2490699999999997  16.2492899999999985
  13.7493999999999996  21.2490699999999997  26.2488500000000009
  21.2490699999999997   6.2497299999999996  26.2488500000000009
  18.7491799999999991  26.2488500000000009  18.7491799999999991
   6.2497299999999996  11.2495100000000008   3.7498399999999998
   1.2499499999999999   3.7498399999999998   8.7496200000000002
  13.7493999999999996  23.7489600000000003  18.7491799999999991
  26.2488500000000009  23.7489600000000003  18.7491799999999991
  21.2490699999999997  16.2492899999999985  16.2492899999999985
   1.2499499999999999  21.2490699999999997  18.7491799999999991
   1.2499499999999999  26.2488500000000009  18.7491799999999991
   6.2497299999999996   3.7498399999999998  13.7493999999999996
  16.2492899999999985   6.2497299999999996  26.2488500000000009
  13.7493999999999996  23.7489600000000003  11.2495100000000008
  11.2495100000000008  13.7493999999999996   6.2497299999999996
  18.7491799999999991  26.2488500000000009   3.7498399999999998
   8.7496200000000002  21.2490699999999997   3.7498399999999998
   8.7496200000000002  26.2488500000000009  26.2488500000000009
   8.7496200000000002   6.2497299999999996  18.7491799999999991
  11.2495100000000008   6.2497299999999996  18.7491799999999991
  23.7489600000000003   3.7498399999999998   1.2499499999999999
   3.7498399999999998  26.2488500000000009  18.7491799999999991
   3.7498399999999998  13.7493999999999996   6.2497299999999996
  13.7493999999999996   3.7498399999999998   1.2499499999999999
  18.7491799999999991  26.2488500000000009   1.2499499999999999
  18.7491799999999991  11.2495100000000008  13.7493999999999996
  11.2495100000000008   3.7498399999999998  23.7489600000000003
   8.7496200000000002  11.2495100000000008  16.2492899999999985
   8.7496200000000002  18.7491799999999991  21.2490699999999997
  23.7489600000000003  23.7489600000000003   1.2499499999999999
  21.2490699999999997  13.7493999999999996  26.2488500000000009
   3.7498399999999998   1.2499499999999999   3.7498399999999998
   6.2497299999999996  16.2492899999999985  13.7493999999999996
  18.7491799999999991  26.2488500000000009  11.2495100000000008
   3.7498399999999998  11.2495100000000008  16.2492899999999985
  26.2488500000000009   8.7496200000000002   3.7498399999999998
  11.2495100000000008  21.2490699999999997  26.2488500000000009
   1.2499499999999999  16.2492899999999985  11.2495100000000008
  11.2495100000000008   6.2497299999999996  26.2488500000000009
   3.7498399999999998   3.7498399999999998  16.2492899999999985
   1.2499499999999999   1.2499499999999999  16.2492899999999985
  26.2488500000000009  21.2490699999999997  18.7491799999999991
  26.2488500000000009   1.2499499999999999   3.7498399999999998
  26.2488500000000009  11.2495100000000008  18.7491799999999991
  23.7489600000000003   3.7498399999999998  11.2495100000000008
  21.2490699999999997  11.2495100000000008   3.7498399999999998
  26.2488500000000009  16.2492899999999985  11.2495100000000008
  16.2492899999999985  11.2495100000000008  16.2492899999999985
  16.2492899999999985  16.2492899999999985  13.7493999999999996
  18.7491799999999991   6.2497299999999996  13.7493999999999996
  26.2488500000000009   3.7498399999999998  13.7493999999999996
  16.2492899999999985  13.7493999999999996  21.2490699999999997
   1.2499499999999999  13.7493999999999996   3.7498399999999998
  18.7491799999999991   6.2497299999999996   8.7496200000000002
  26.2488500000000009  23.7489600000000003   8.7496200000000002
  18.7491799999999991   8.7496200000000002  18.7491799999999991
  26.2488500000000009  21.2490699999999997   6.2497299999999996
  23.7489600000000003  26.2488500000000009  13.7493999999999996
   6.2497299999999996  21.2490699999999997  23.7489600000000003
   8.7496200000000002   8.7496200000000002  18.7491799999999991
   8.7496200000000002  16.2492899999999985  18.7491799999999991
  13.7493999999999996  13.7493999999999996   3.7498399999999998
   6.2497299999999996   6.2497299999999996   1.2499499999999999
  16.2492899999999985  26.2488500000000009  11.2495100000000008
  11.2495100000000008  13.7493999999999996  13.7493999999999996
  23.7489600000000003  23.7489600000000003   3.7498399999999998
  16.2492899999999985  21.2490699999999997  26.2488500000000009
   1.2499499999999999   8.7496200000000002  18.7491799999999991
  13.7493999999999996  18.7491799999999991  11.2495100000000008
  13.7493999999999996  16.2492899999999985   6.2497299999999996
  18.7491799999999991  21.2490699999999997  13.7493999999999996
  11.2495100000000008  26.2488500000000009  13.7493999999999996
   1.2499499999999999  18.7491799999999991  26.2488500000000009
  18.7491799999999991  16.2492899999999985   3.7498399999999998
  21.2490699999999997  11.2495100000000008   1.2499499999999999
   3.7498399999999998  18.7491799999999991  21.2490699999999997
  21.2490699999999997  26.2488500000000009  13.7493999999999996
  13.7493999999999996  11.2495100000000008  26.2488500000000009
  13.7493999999999996   1.2499499999999999  13.7493999999999996
  26.2488500000000009   6.2497299999999996   8.7496200000000002
  18.7491799999999991   1.2499499999999999   1.2499499999999999
  21.2490699999999997   3.7498399999999998   6.2497299999999996
   1.2499499999999999   6.2497299999999996  16.2492899999999985
  23.7489600000000003  21.2490699999999997  16.2492899999999985
  18.7491799999999991  11.2495100000000008   8.7496200000000002
   6.2497299999999996  13.7493999999999996   6.2497299999999996
   3.7498399999999998  23.7489600000000003  13.7493999999999996
   6.2497299999999996  26.2488500000000009  23.7489600000000003
  26.2488500000000009   8.7496200000000002  21.2490699999999997
  18.7491799999999991   8.7496200000000002   6.2497299999999996
  18.7491799999999991   6.2497299999999996   1.2499499999999999
  11.2495100000000008  11.2495100000000008   1.2499499999999999
  21.2490699999999997   6.2497299999999996   6.2497299999999996
  23.7489600000000003  23.7489600000000003   6.2497299999999996
   6.2497299999999996   8.7496200000000002  26.2488500000000009
   3.7498399999999998  11.2495100000000008  21.2490699999999997
  23.7489600000000003  23.7489600000000003  11.2495100000000008
  13.7493999999999996   1.2499499999999999  23.7489600000000003
   8.7496200000000002  13.7493999999999996   8.7496200000000002
   6.2497299999999996  23.7489600000000003  21.2490699999999997
  16.2492899999999985  21.2490699999999997  18.7491799999999991
   3.7498399999999998  23.7489600000000003  23.7489600000000003
  11.2495100000000008  18.7491799999999991  26.2488500000000009
  21.2490699999999997   6.2497299999999996   1.2499499999999999
  18.7491799999999991  13.7493999999999996  21.2490699999999997
  23.7489600000000003  13.7493999999999996  16.2492899999999985
  26.2488500000000009  21.2490699999999997   3.7498399999999998
  13.7493999999999996  18.7491799999999991  21.2490699999999997
   6.2497299999999996   6.2497299999999996  11.2495100000000008
   3.7498399999999998   8.7496200000000002  16.2492899999999985
  16.2492899999999985  23.7489600000000003   3.7498399999999998
   3.7498399999999998  23.7489600000000003   8.7496200000000002
  26.2488500000000009  23.7489600000000003  21.2490699999999997
  18.7491799999999991  13.7493999999999996  26.2488500000000009
   8.7496200000000002   8.7496200000000002  23.7489600000000003
   1.2499499999999999  26.2488500000000009  13.7493999999999996
  21.2490699999999997  11.2495100000000008  11.2495100000000008
  18.7491799999999991  18.7491799999999991   6.2497299999999996
  16.2492899999999985   3.7498399999999998  21.2490699999999997
  18.7491799999999991  26.2488500000000009  23.7489600000000003
  21.2490699999999997  11.2495100000000008  26.2488500000000009
   3.7498399999999998   3.7498399999999998  11.2495100000000008
  13.7493999999999996  13.7493999999999996   6.2497299999999996
  11.2495100000000008   1.2499499999999999  21.2490699999999997
  16.2492899999999985  21.2490699999999997   8.7496200000000002
   3.7498399999999998   1.2499499999999999   1.2499499999999999
  16.2492899999999985  18.7491799999999991  23.7489600000000003
   6.2497299999999996   8.7496200000000002  16.2492899999999985
  23.7489600000000003  18.7491799999999991  13.7493999999999996
  26.2488500000000009  18.7491799999999991   1.2499499999999999
  11.2495100000000008   3.7498399999999998   3.7498399999999998
   6.2497299999999996  26.2488500000000009  18.7491799999999991
  23.7489600000000003  16.2492899999999985  23.7489600000000003
  26.2488500000000009   1.2499499999999999  23.7489600000000003
   1.2499499999999999  23.7489600000000003  26.2488500000000009
  21.2490699999999997   8.7496200000000002  11.2495100000000008
   3.7498399999999998  18.7491799999999991   1.2499499999999999
  13.7493999999999996   6.2497299999999996  18.7491799999999991
  18.7491799999999991  18.7491799999999991   3.7498399999999998
  21.2490699999999997  23.7489600000000003  18.7491799999999991
   8.7496200000000002   6.2497299999999996   1.2499499999999999
  23.7489600000000003  21.2490699999999997   3.7498399999999998
  21.2490699999999997  13.7493999999999996  23.7489600000000003
  18.7491799999999991  13.7493999999999996  23.7489600000000003
  13.7493999999999996  18.7491799999999991  13.7493999999999996
   8.7496200000000002   8.7496200000000002  13.7493999999999996
   1.2499499999999999   8.7496200000000002   8.7496200000000002
  23.7489600000000003  13.7493999999999996  11.2495100000000008
   8.7496200000000002  26.2488500000000009  23.7489600000000003
   6.2497299999999996   1.2499499999999999  16.2492899999999985
  18.7491799999999991   8.7496200000000002   8.7496200000000002
  26.2488500000000009  23.7489600000000003  16.2492899999999985
  23.7489600000000003  11.2495100000000008  13.7493999999999996
  16.2492899999999985  16.2492899999999985  21.2490699999999997
  26.2488500000000009   8.7496200000000002   1.2499499999999999
  21.2490699999999997  23.7489600000000003  11.2495100000000008
   1.2499499999999999  26.2488500000000009  23.7489600000000003
  23.7489600000000003  13.7493999999999996   3.7498399999999998
   1.2499499999999999   3.7498399999999998  16.2492899999999985
   3.7498399999999998  11.2495100000000008   1.2499499999999999
   8.7496200000000002   1.2499499999999999  11.2495100000000008
   6.2497299999999996  26.2488500000000009   6.2497299999999996
   1.2499499999999999   8.7496200000000002  26.2488500000000009
  16.2492899999999985   1.2499499999999999   8.7496200000000002
  16.2492899999999985  23.7489600000000003   1.2499499999999999
  23.7489600000000003  21.2490699999999997  21.2490699999999997
   3.7498399999999998  26.2488500000000009  21.2490699999999997
   8.7496200000000002  23.7489600000000003  11.2495100000000008
   8.7496200000000002   8.7496200000000002   8.7496200000000002
  18.7491799999999991   6.2497299999999996  18.7491799999999991
  16.2492899999999985   6.2497299999999996  13.7493999999999996
   1.2499499999999999  16.2492899999999985  13.7493999999999996
   8.7496200000000002  13.7493999999999996  18.7491799999999991
  21.2490699999999997  23.7489600000000003   8.7496200000000002
   3.7498399999999998  13.7493999999999996  21.2490699999999997
  26.2488500000000009  13.7493999999999996   1.2499499999999999
   1.2499499999999999   1.2499499999999999   1.2499499999999999
   8.7496200000000002  21.2490699999999997  13.7493999999999996
  16.2492899999999985   8.7496200000000002  23.7489600000000003
  21.2490699999999997   3.7498399999999998   3.7498399999999998
  11.2495100000000008   1.2499499999999999  16.2492899999999985
   1.2499499999999999   1.2499499999999999  11.2495100000000008
   6.2497299999999996  13.7493999999999996  18.7491799999999991
  23.7489600000000003  26.2488500000000009  11.2495100000000008
  13.7493999999999996  26.2488500000000009  21.2490699999999997
  21.2490699999999997  21.2490699999999997  23.7489600000000003
  26.2488500000000009   6.2497299999999996  16.2492899999999985
  11.2495100000000008   3.7498399999999998  11.2495100000000008
  16.2492899999999985  21.2490699999999997  13.7493999999999996
  18.7491799999999991  26.2488500000000009  16.2492899999999985
  13.7493999999999996   3.7498399999999998  16.2492899999999985
  18.7491799999999991   3.7498399999999998   8.7496200000000002
   8.7496200000000002   1.2499499999999999  21.2490699999999997
  26.2488500000000009   1.2499499999999999  16.2492899999999985
  13.7493999999999996  21.2490699999999997  11.2495100000000008
   6.2497299999999996   8.7496200000000002   3.7498399999999998
   8.7496200000000002  21.2490699999999997  23.7489600000000003
   3.7498399999999998   8.7496200000000002  18.7491799999999991
  16.2492899999999985  16.2492899999999985   1.2499499999999999
   1.2499499999999999  13.7493999999999996   8.7496200000000002
   1.2499499999999999  16.2492899999999985   1.2499499999999999
  16.2492899999999985   6.2497299999999996  23.7489600000000003
  21.2490699999999997  23.7489600000000003   3.7498399999999998
   3.7498399999999998  23.7489600000000003   3.7498399999999998
  21.2490699999999997   3.7498399999999998  13.7493999999999996
   8.7496200000000002   3.7498399999999998  13.7493999999999996
  21.2490699999999997  23.7489600000000003  26.2488500000000009
  16.2492899999999985   8.7496200000000002   6.2497299999999996
   3.7498399999999998  11.2495100000000008   6.2497299999999996
  18.7491799999999991  18.7491799999999991  16.2492899999999985
   3.7498399999999998   6.2497299999999996  23.7489600000000003
  26.2488500000000009  18.7491799999999991   6.2497299999999996
  23.7489600000000003  13.7493999999999996  18.7491799999999991
  16.2492899999999985  21.2490699999999997  23.7489600000000003
  23.7489600000000003   8.7496200000000002   8.7496200000000002
   1.2499499999999999  18.7491799999999991  21.2490699999999997
   6.2497299999999996   1.2499499999999999  13.7493999999999996
  21.2490699999999997   8.7496200000000002  21.2490699999999997
  16.2492899999999985   6.2497299999999996  18.7491799999999991
  26.2488500000000009  26.2488500000000009  18.7491799999999991
  23.7489600000000003  23.7489600000000003   8.7496200000000002
  18.7491799999999991   8.7496200000000002  23.7489600000000003
  23.7489600000000003  26.2488500000000009  18.7491799999999991
  23.7489600000000003  13.7493999999999996  23.7489600000000003
  16.2492899999999985  26.2488500000000009  18.7491799999999991
  11.2495100000000008   1.2499499999999999  13.7493999999999996
  26.2488500000000009   6.2497299999999996   6.2497299999999996
  21.2490699999999997  13.7493999999999996  21.2490699999999997
  16.2492899999999985  11.2495100000000008  11.2495100000000008
  16.2492899999999985  23.7489600000000003  16.2492899999999985
  26.2488500000000009  26.2488500000000009  13.7493999999999996
  21.2490699999999997  23.7489600000000003  13.7493999999999996
  21.2490699999999997  21.2490699999999997  11.2495100000000008
  21.2490699999999997  18.7491799999999991  21.2490699999999997
   1.2499499999999999   1.2499499999999999  13.7493999999999996
   6.2497299999999996  18.7491799999999991   8.7496200000000002
  26.2488500000000009  21.2490699999999997  13.7493999999999996
  18.7491799999999991  18.7491799999999991   8.7496200000000002
  23.7489600000000003  11.2495100000000008   6.2497299999999996
  11.2495100000000008   8.7496200000000002  18.7491799999999991
  16.2492899999999985   3.7498399999999998  18.7491799999999991
  21.2490699999999997  26.2488500000000009   6.2497299999999996
   3.7498399999999998  21.2490699999999997  26.2488500000000009
   6.2497299999999996   8.7496200000000002  21.2490699999999997
   1.2499499999999999   6.2497299999999996   3.7498399999999998
  23.7489600000000003  21.2490699999999997   6.2497299999999996
  16.2492899999999985  11.2495100000000008  23.7489600000000003
   1.2499499999999999  23.7489600000000003  11.2495100000000008
   3.7498399999999998  13.7493999999999996   1.2499499999999999
  18.7491799999999991   6.2497299999999996  16.2492899999999985
  11.2495100000000008  16.2492899999999985   8.7496200000000002
   3.7498399999999998   8.7496200000000002  26.2488500000000009
  11.2495100000000008  23.7489600000000003   8.7496200000000002
  18.7491799999999991  23.7489600000000003  16.2492899999999985
  26.2488500000000009  13.7493999999999996   8.7496200000000002
   8.7496200000000002  11.2495100000000008   6.2497299999999996
  18.7491799999999991  21.2490699999999997   1.2499499999999999
  23.7489600000000003   8.7496200000000002  18.7491799999999991
  21.2490699999999997  26.2488500000000009  11.2495100000000008
  21.2490699999999997   1.2499499999999999  21.2490699999999997
  21.2490699999999997   6.2497299999999996   8.7496200000000002
  21.2490699999999997   6.2497299999999996   3.7498399999999998
   8.7496200000000002   3.7498399999999998  21.2490699999999997
  13.7493999999999996  16.2492899999999985   1.2499499999999999
   3.7498399999999998  26.2488500000000009   1.2499499999999999
  16.2492899999999985  13.7493999999999996  23.7489600000000003
   1.2499499999999999  23.7489600000000003  16.2492899999999985
  26.2488500000000009  18.7491799999999991  16.2492899999999985
   8.7496200000000002  11.2495100000000008   1.2499499999999999
  16.2492899999999985   1.2499499999999999   1.2499499999999999
   3.7498399999999998  18.7491799999999991  16.2492899999999985
   3.7498399999999998   3.7498399999999998   8.7496200000000002
  23.7489600000000003  23.7489600000000003  18.7491799999999991
   3.7498399999999998  21.2490699999999997  21.2490699999999997
  21.2490699999999997  16.2492899999999985   3.7498399999999998
  13.7493999999999996   1.2499499999999999   1.2499499999999999
  23.7489600000000003   3.7498399999999998  21.2490699999999997
  26.2488500000000009  13.7493999999999996  21.2490699999999997
  21.2490699999999997  13.7493999999999996   3.7498399999999998
  13.7493999999999996  13.7493999999999996   1.2499499999999999
  26.2488500000000009  18.7491799999999991   3.7498399999999998
   1.2499499999999999  23.7489600000000003  13.7493999999999996
   3.7498399999999998  13.7493999999999996  18.7491799999999991
   6.2497299999999996  23.7489600000000003  18.7491799999999991
  18.7491799999999991  23.7489600000000003   1.2499499999999999
  18.7491799999999991  11.2495100000000008  21.2490699999999997
  21.2490699999999997   6.2497299999999996  18.7491799999999991
  23.7489600000000003   6.2497299999999996   8.7496200000000002
  21.2490699999999997  18.7491799999999991  26.2488500000000009
  26.2488500000000009   8.7496200000000002  18.7491799999999991
  13.7493999999999996  13.7493999999999996  18.7491799999999991
  21.2490699999999997  18.7491799999999991  13.7493999999999996
   3.7498399999999998   6.2497299999999996   6.2497299999999996
  13.7493999999999996   8.7496200000000002   1.2499499999999999
   6.2497299999999996  16.2492899999999985  21.2490699999999997
   8.7496200000000002   8.7496200000000002  11.2495100000000008
   3.7498399999999998  16.2492899999999985  23.7489600000000003
  23.7489600000000003  16.2492899999999985  18.7491799999999991
  23.7489600000000003   8.7496200000000002  21.2490699999999997
  13.7493999999999996  21.2490699999999997  21.2490699999999997
  18.7491799999999991  18.7491799999999991  13.7493999999999996
  26.2488500000000009  21.2490699999999997   1.2499499999999999
   8.7496200000000002   6.2497299999999996  11.2495100000000008
   6.2497299999999996  26.2488500000000009  21.2490699999999997
   3.7498399999999998  23.7489600000000003   1.2499499999999999
  23.7489600000000003  18.7491799999999991  11.2495100000000008
  13.7493999999999996  23.7489600000000003   6.2497299999999996
   6.2497299999999996  21.2490699999999997  13.7493999999999996
  13.7493999999999996  23.7489600000000003  13.7493999999999996
  16.2492899999999985  16.2492899999999985  11.2495100000000008
   6.2497299999999996   3.7498399999999998   8.7496200000000002
   3.7498399999999998  11.2495100000000008  26.2488500000000009
  26.2488500000000009  11.2495100000000008   8.7496200000000002
  23.7489600000000003   6.2497299999999996  13.7493999999999996
   6.2497299999999996  11.2495100000000008  13.7493999999999996
  23.7489600000000003   3.7498399999999998  13.7493999999999996
   1.2499499999999999  16.2492899999999985   6.2497299999999996
  26.2488500000000009   8.7496200000000002  23.7489600000000003
   3.7498399999999998   1.2499499999999999  21.2490699999999997
  23.7489600000000003  13.7493999999999996  26.2488500000000009
  13.7493999999999996  26.2488500000000009  13.7493999999999996
   3.7498399999999998  13.7493999999999996   3.7498399999999998
  23.7489600000000003  26.2488500000000009   3.7498399999999998
   8.7496200000000002  21.2490699999999997  21.2490699999999997
  16.2492899999999985  23.7489600000000003  13.7493999999999996
  11.2495100000000008  11.2495100000000008  16.2492899999999985
  26.2488500000000009  23.7489600000000003  13.7493999999999996
  23.7489600000000003   1.2499499999999999  11.2495100000000008
  13.7493999999999996  13.7493999999999996  16.2492899999999985