GeTe
  1.0000000000000000
    28.9487099999999984   0.0000000000000000   0.0000000000000000
     0.0000000000000000  28.9487099999999984   0.0000000000000000
     0.0000000000000000   0.0000000000000000  28.9487099999999984
  448  448
Cartesian
  25.0011599999999987  11.8426600000000004  22.3694600000000001
   3.9475500000000001  19.7377600000000015  19.7377600000000015
  17.1060599999999994   6.5792500000000000  25.0011599999999987
  22.3694600000000001  17.1060599999999994   6.5792500000000000
   3.9475500000000001  25.0011599999999987   6.5792500000000000
  25.0011599999999987  14.4743600000000008  11.8426600000000004
  17.1060599999999994  17.1060599999999994  22.3694600000000001
  27.6328600000000009   1.3158500000000000  17.1060599999999994
   1.3158500000000000   1.3158500000000000  14.4743600000000008
   3.9475500000000001  11.8426600000000004  22.3694600000000001
  14.4743600000000008  14.4743600000000008  25.0011599999999987
   9.2109500000000004  27.6328600000000009   6.5792500000000000
   3.9475500000000001   9.2109500000000004   3.9475500000000001
  22.3694600000000001   3.9475500000000001  14.4743600000000008
   9.2109500000000004   3.9475500000000001  27.6328600000000009
  22.3694600000000001  25.0011599999999987  27.6328600000000009
  25.0011599999999987  25.0011599999999987   6.5792500000000000
   1.3158500000000000   3.9475500000000001  17.1060599999999994
  14.4743600000000008  27.6328600000000009  22.3694600000000001
  19.7377600000000015   3.9475500000000001  19.7377600000000015
  19.7377600000000015   6.5792500000000000  27.6328600000000009
  11.8426600000000004  25.0011599999999987   3.9475500000000001
  14.4743600000000008   3.9475500000000001   6.5792500000000000
  19.7377600000000015  22.3694600000000001   1.3158500000000000
   9.2109500000000004   9.2109500000000004   6.5792500000000000
  25.0011599999999987  25.0011599999999987  11.8426600000000004
   6.5792500000000000  11.8426600000000004  11.8426600000000004
  27.6328600000000009   9.2109500000000004   9.2109500000000004
   3.9475500000000001  14.4743600000000008  22.3694600000000001
   9.2109500000000004   9.2109500000000004   3.9475500000000001
   1.3158500000000000   1.3158500000000000   3.9475500000000001
  11.8426600000000004  11.8426600000000004   6.5792500000000000
  17.1060599999999994  17.1060599999999994  19.7377600000000015
   3.9475500000000001   3.9475500000000001  19.7377600000000015
   6.5792500000000000  14.4743600000000008  22.3694600000000001
  11.8426600000000004   9.2109500000000004   1.3158500000000000
  14.4743600000000008   1.3158500000000000  27.6328600000000009
   9.2109500000000004   3.9475500000000001   6.5792500000000000
   9.2109500000000004  17.1060599999999994   1.3158500000000000
  25.0011599999999987   1.3158500000000000  25.0011599999999987
  22.3694600000000001  14.4743600000000008  22.3694600000000001
   1.3158500000000000  25.0011599999999987  11.8426600000000004
  17.1060599999999994   6.5792500000000000   6.5792500000000000
  14.4743600000000008  14.4743600000000008  11.8426600000000004
   1.3158500000000000  25.0011599999999987  14.4743600000000008
   9.2109500000000004  25.0011599999999987  17.1060599999999994
   3.9475500000000001  19.7377600000000015  11.8426600000000004
   3.9475500000000001   1.3158500000000000   3.9475500000000001
  27.6328600000000009  14.4743600000000008  19.7377600000000015
   9.2109500000000004  11.8426600000000004   6.5792500000000000
  11.8426600000000004  11.8426600000000004   1.3158500000000000
  11.8426600000000004   9.2109500000000004  19.7377600000000015
  17.1060599999999994   3.9475500000000001  17.1060599999999994
  14.4743600000000008   6.5792500000000000  22.3694600000000001
   6.5792500000000000  22.3694600000000001   6.5792500000000000
   1.3158500000000000  25.0011599999999987  27.6328600000000009
  11.8426600000000004   1.3158500000000000   1.3158500000000000
  11.8426600000000004  14.4743600000000008  11.8426600000000004
  11.8426600000000004  27.6328600000000009   9.2109500000000004
  11.8426600000000004   1.3158500000000000  17.1060599999999994
   3.9475500000000001  11.8426600000000004   3.9475500000000001
   9.2109500000000004  14.4743600000000008  22.3694600000000001
  19.7377600000000015  14.4743600000000008   3.9475500000000001
   6.5792500000000000  25.0011599999999987   1.3158500000000000
  22.3694600000000001  17.1060599999999994  25.0011599999999987
  22.3694600000000001  19.7377600000000015  22.3694600000000001
  27.6328600000000009   1.3158500000000000  27.6328600000000009
   9.2109500000000004  27.6328600000000009  22.3694600000000001
  17.1060599999999994  14.4743600000000008  19.7377600000000015
  14.4743600000000008  22.3694600000000001  25.0011599999999987
  11.8426600000000004  19.7377600000000015   9.2109500000000004
   9.2109500000000004  25.0011599999999987  14.4743600000000008
   9.2109500000000004  22.3694600000000001  19.7377600000000015
  17.1060599999999994   6.5792500000000000  19.7377600000000015
  17.1060599999999994   9.2109500000000004  27.6328600000000009
  14.4743600000000008  14.4743600000000008   9.2109500000000004
   3.9475500000000001  17.1060599999999994  27.6328600000000009
  25.0011599999999987  27.6328600000000009   6.5792500000000000
  19.7377600000000015   1.3158500000000000   6.5792500000000000
  25.0011599999999987  14.4743600000000008  14.4743600000000008
   3.9475500000000001   6.5792500000000000   9.2109500000000004
  22.3694600000000001   3.9475500000000001   9.2109500000000004
  14.4743600000000008  17.1060599999999994   9.2109500000000004
  19.7377600000000015   3.9475500000000001   9.2109500000000004
  25.0011599999999987   6.5792500000000000   3.9475500000000001
   9.2109500000000004   3.9475500000000001   9.2109500000000004
  17.1060599999999994   3.9475500000000001   6.5792500000000000
   1.3158500000000000   9.2109500000000004   3.9475500000000001
  11.8426600000000004   9.2109500000000004  17.1060599999999994
   3.9475500000000001  19.7377600000000015   6.5792500000000000
   1.3158500000000000  27.6328600000000009  27.6328600000000009
  19.7377600000000015  27.6328600000000009  14.4743600000000008
  19.7377600000000015   6.5792500000000000  17.1060599999999994
  27.6328600000000009  27.6328600000000009   6.5792500000000000
  27.6328600000000009  11.8426600000000004   9.2109500000000004
  27.6328600000000009  19.7377600000000015  11.8426600000000004
  27.6328600000000009  27.6328600000000009   3.9475500000000001
  27.6328600000000009  27.6328600000000009  19.7377600000000015
  11.8426600000000004  25.0011599999999987   6.5792500000000000
   6.5792500000000000   9.2109500000000004  14.4743600000000008
   1.3158500000000000   9.2109500000000004  22.3694600000000001
   6.5792500000000000  11.8426600000000004  22.3694600000000001
  27.6328600000000009  19.7377600000000015   6.5792500000000000
  14.4743600000000008   3.9475500000000001  22.3694600000000001
  22.3694600000000001   9.2109500000000004   1.3158500000000000
  22.3694600000000001  25.0011599999999987   3.9475500000000001
   9.2109500000000004   6.5792500000000000  11.8426600000000004
   3.9475500000000001  17.1060599999999994  19.7377600000000015
   3.9475500000000001  11.8426600000000004  11.8426600000000004
  22.3694600000000001   1.3158500000000000  19.7377600000000015
   1.3158500000000000   6.5792500000000000  22.3694600000000001
   6.5792500000000000  19.7377600000000015  27.6328600000000009
  22.3694600000000001  25.0011599999999987  25.0011599999999987
  17.1060599999999994   6.5792500000000000  14.4743600000000008
  14.4743600000000008   1.3158500000000000   3.9475500000000001
   1.3158500000000000  14.4743600000000008  14.4743600000000008
  11.8426600000000004   1.3158500000000000  27.6328600000000009
  14.4743600000000008   6.5792500000000000   1.3158500000000000
   9.2109500000000004  22.3694600000000001   3.9475500000000001
  25.0011599999999987  11.8426600000000004   6.5792500000000000
  17.1060599999999994  19.7377600000000015  27.6328600000000009
  14.4743600000000008  14.4743600000000008   1.3158500000000000
   9.2109500000000004   1.3158500000000000  11.8426600000000004
   3.9475500000000001  17.1060599999999994   9.2109500000000004
  17.1060599999999994  14.4743600000000008  11.8426600000000004
   3.9475500000000001  19.7377600000000015  25.0011599999999987
   1.3158500000000000  22.3694600000000001   1.3158500000000000
   1.3158500000000000   6.5792500000000000   6.5792500000000000
   1.3158500000000000  14.4743600000000008  27.6328600000000009
   9.2109500000000004  17.1060599999999994  19.7377600000000015
  27.6328600000000009  14.4743600000000008  25.0011599999999987
  25.0011599999999987  22.3694600000000001  27.6328600000000009
  25.0011599999999987   1.3158500000000000  19.7377600000000015
   6.5792500000000000   1.3158500000000000  25.0011599999999987
  25.0011599999999987   9.2109500000000004  25.0011599999999987
  25.0011599999999987   3.9475500000000001  22.3694600000000001
  14.4743600000000008  22.3694600000000001   6.5792500000000000
  22.3694600000000001   3.9475500000000001  25.0011599999999987
   9.2109500000000004   6.5792500000000000  22.3694600000000001
  14.4743600000000008   3.9475500000000001  27.6328600000000009
  25.0011599999999987  11.8426600000000004  25.0011599999999987
   6.5792500000000000  22.3694600000000001   1.3158500000000000
   1.3158500000000000  19.7377600000000015   3.9475500000000001
   1.3158500000000000  11.8426600000000004  14.4743600000000008
  14.4743600000000008  22.3694600000000001  22.3694600000000001
   9.2109500000000004  22.3694600000000001  17.1060599999999994
   9.2109500000000004  11.8426600000000004  17.1060599999999994
  17.1060599999999994  14.4743600000000008  27.6328600000000009
  27.6328600000000009  22.3694600000000001  22.3694600000000001
  17.1060599999999994  25.0011599999999987  25.0011599999999987
  17.1060599999999994  22.3694600000000001  19.7377600000000015
   9.2109500000000004  27.6328600000000009   1.3158500000000000
  25.0011599999999987  27.6328600000000009  17.1060599999999994
   9.2109500000000004   6.5792500000000000  27.6328600000000009
  25.0011599999999987   6.5792500000000000  14.4743600000000008
  14.4743600000000008  19.7377600000000015   9.2109500000000004
  11.8426600000000004   6.5792500000000000   1.3158500000000000
  19.7377600000000015   3.9475500000000001  27.6328600000000009
  22.3694600000000001  17.1060599999999994  11.8426600000000004
  19.7377600000000015   9.2109500000000004  14.4743600000000008
  14.4743600000000008   9.2109500000000004   9.2109500000000004
   9.2109500000000004  17.1060599999999994   6.5792500000000000
   1.3158500000000000   3.9475500000000001   6.5792500000000000
   3.9475500000000001  27.6328600000000009  17.1060599999999994
  27.6328600000000009   9.2109500000000004   3.9475500000000001
   1.3158500000000000  17.1060599999999994  14.4743600000000008
  17.1060599999999994   1.3158500000000000  19.7377600000000015
  17.1060599999999994  14.4743600000000008   3.9475500000000001
   6.5792500000000000  22.3694600000000001  27.6328600000000009
  22.3694600000000001  22.3694600000000001  25.0011599999999987
  11.8426600000000004   1.3158500000000000  19.7377600000000015
   6.5792500000000000   9.2109500000000004   6.5792500000000000
   3.9475500000000001  17.1060599999999994  22.3694600000000001
  27.6328600000000009  19.7377600000000015   1.3158500000000000
   1.3158500000000000   6.5792500000000000  19.7377600000000015
   6.5792500000000000   1.3158500000000000   9.2109500000000004
  11.8426600000000004   1.3158500000000000   9.2109500000000004
  27.6328600000000009  19.7377600000000015  27.6328600000000009
   9.2109500000000004   6.5792500000000000   9.2109500000000004
  25.0011599999999987   3.9475500000000001   1.3158500000000000
   6.5792500000000000  25.0011599999999987   3.9475500000000001
  14.4743600000000008  19.7377600000000015   6.5792500000000000
  17.1060599999999994  22.3694600000000001  25.0011599999999987
   1.3158500000000000   6.5792500000000000   9.2109500000000004
  17.1060599999999994   1.3158500000000000   1.3158500000000000
   6.5792500000000000  27.6328600000000009   6.5792500000000000
  22.3694600000000001  27.6328600000000009  11.8426600000000004
  22.3694600000000001  27.6328600000000009  22.3694600000000001
  17.1060599999999994   9.2109500000000004  19.7377600000000015
  11.8426600000000004   9.2109500000000004   3.9475500000000001
  25.0011599999999987   1.3158500000000000  22.3694600000000001
  19.7377600000000015   9.2109500000000004  25.0011599999999987
  11.8426600000000004   1.3158500000000000  25.0011599999999987
  14.4743600000000008  11.8426600000000004  25.0011599999999987
   1.3158500000000000  19.7377600000000015  27.6328600000000009
   9.2109500000000004   3.9475500000000001  11.8426600000000004
   9.2109500000000004  25.0011599999999987  19.7377600000000015
  11.8426600000000004  27.6328600000000009   1.3158500000000000
  27.6328600000000009  27.6328600000000009  17.1060599999999994
  19.7377600000000015  17.1060599999999994  14.4743600000000008
   3.9475500000000001   9.2109500000000004   6.5792500000000000
  14.4743600000000008  17.1060599999999994   1.3158500000000000
  14.4743600000000008  22.3694600000000001  17.1060599999999994
  11.8426600000000004   9.2109500000000004  14.4743600000000008
   3.9475500000000001  19.7377600000000015  14.4743600000000008
  25.0011599999999987   6.5792500000000000  19.7377600000000015
  27.6328600000000009   9.2109500000000004  19.7377600000000015
  25.0011599999999987  11.8426600000000004  14.4743600000000008
  19.7377600000000015  17.1060599999999994   3.9475500000000001
   9.2109500000000004  19.7377600000000015  22.3694600000000001
  14.4743600000000008  17.1060599999999994  19.7377600000000015
  25.0011599999999987  22.3694600000000001  11.8426600000000004
  19.7377600000000015   9.2109500000000004   1.3158500000000000
  14.4743600000000008  19.7377600000000015  17.1060599999999994
  27.6328600000000009  19.7377600000000015  14.4743600000000008
   6.5792500000000000  19.7377600000000015   9.2109500000000004
  11.8426600000000004  27.6328600000000009  27.6328600000000009
  27.6328600000000009  14.4743600000000008  14.4743600000000008
  25.0011599999999987  14.4743600000000008  19.7377600000000015
  19.7377600000000015  11.8426600000000004  14.4743600000000008
   6.5792500000000000   3.9475500000000001  22.3694600000000001
  22.3694600000000001  25.0011599999999987   6.5792500000000000
   3.9475500000000001   1.3158500000000000   6.5792500000000000
  27.6328600000000009  11.8426600000000004   1.3158500000000000
  17.1060599999999994  25.0011599999999987  19.7377600000000015
  14.4743600000000008   6.5792500000000000  27.6328600000000009
  22.3694600000000001  14.4743600000000008  19.7377600000000015
  17.1060599999999994   3.9475500000000001   9.2109500000000004
  17.1060599999999994   9.2109500000000004  25.0011599999999987
  25.0011599999999987  11.8426600000000004   9.2109500000000004
  27.6328600000000009  22.3694600000000001   3.9475500000000001
   1.3158500000000000  22.3694600000000001  25.0011599999999987
  17.1060599999999994   1.3158500000000000   9.2109500000000004
   3.9475500000000001  11.8426600000000004  17.1060599999999994
  27.6328600000000009   6.5792500000000000  27.6328600000000009
  19.7377600000000015  11.8426600000000004   1.3158500000000000
   1.3158500000000000   3.9475500000000001  27.6328600000000009
  17.1060599999999994   1.3158500000000000  27.6328600000000009
  27.6328600000000009   3.9475500000000001   6.5792500000000000
  19.7377600000000015  19.7377600000000015  25.0011599999999987
  19.7377600000000015   3.9475500000000001  14.4743600000000008
  14.4743600000000008   9.2109500000000004  19.7377600000000015
  22.3694600000000001   1.3158500000000000  22.3694600000000001
  17.1060599999999994   3.9475500000000001  14.4743600000000008
   9.2109500000000004   3.9475500000000001   1.3158500000000000
  14.4743600000000008   9.2109500000000004  22.3694600000000001
  11.8426600000000004   3.9475500000000001  17.1060599999999994
  25.0011599999999987  27.6328600000000009  22.3694600000000001
  22.3694600000000001  22.3694600000000001   3.9475500000000001
   1.3158500000000000  25.0011599999999987  17.1060599999999994
  25.0011599999999987   9.2109500000000004  17.1060599999999994
   6.5792500000000000   3.9475500000000001  11.8426600000000004
   6.5792500000000000  17.1060599999999994   3.9475500000000001
   1.3158500000000000  22.3694600000000001  27.6328600000000009
  17.1060599999999994   9.2109500000000004  14.4743600000000008
   3.9475500000000001  17.1060599999999994   3.9475500000000001
  27.6328600000000009   9.2109500000000004   6.5792500000000000
   6.5792500000000000   3.9475500000000001  19.7377600000000015
  25.0011599999999987  19.7377600000000015  11.8426600000000004
  14.4743600000000008   1.3158500000000000   6.5792500000000000
  11.8426600000000004  27.6328600000000009  25.0011599999999987
  17.1060599999999994  27.6328600000000009  11.8426600000000004
  22.3694600000000001  17.1060599999999994   9.2109500000000004
  17.1060599999999994  19.7377600000000015  17.1060599999999994
   9.2109500000000004  14.4743600000000008  25.0011599999999987
   3.9475500000000001   3.9475500000000001  11.8426600000000004
  27.6328600000000009  17.1060599999999994  17.1060599999999994
  19.7377600000000015   6.5792500000000000   1.3158500000000000
   3.9475500000000001   3.9475500000000001   9.2109500000000004
  14.4743600000000008   3.9475500000000001  11.8426600000000004
  14.4743600000000008  27.6328600000000009   9.2109500000000004
  11.8426600000000004   6.5792500000000000  11.8426600000000004
  17.1060599999999994  11.8426600000000004   9.2109500000000004
  14.4743600000000008   1.3158500000000000  14.4743600000000008
   1.3158500000000000  19.7377600000000015  25.0011599999999987
   6.5792500000000000   6.5792500000000000  11.8426600000000004
   6.5792500000000000  25.0011599999999987  17.1060599999999994
  22.3694600000000001   3.9475500000000001  27.6328600000000009
   6.5792500000000000  17.1060599999999994   9.2109500000000004
   1.3158500000000000  11.8426600000000004  25.0011599999999987
  27.6328600000000009   3.9475500000000001  19.7377600000000015
  14.4743600000000008  11.8426600000000004  22.3694600000000001
  27.6328600000000009   6.5792500000000000  14.4743600000000008
  11.8426600000000004   3.9475500000000001  14.4743600000000008
  11.8426600000000004  27.6328600000000009   3.9475500000000001
  19.7377600000000015  19.7377600000000015  14.4743600000000008
  17.1060599999999994  19.7377600000000015  11.8426600000000004
  17.1060599999999994   9.2109500000000004   3.9475500000000001
   1.3158500000000000  11.8426600000000004  22.3694600000000001
  22.3694600000000001  17.1060599999999994   3.9475500000000001
   3.9475500000000001   6.5792500000000000   1.3158500000000000
   6.5792500000000000   1.3158500000000000  27.6328600000000009
  11.8426600000000004   6.5792500000000000  19.7377600000000015
  25.0011599999999987  19.7377600000000015  25.0011599999999987
  22.3694600000000001   6.5792500000000000   6.5792500000000000
  11.8426600000000004  19.7377600000000015  11.8426600000000004
   9.2109500000000004   1.3158500000000000  17.1060599999999994
   3.9475500000000001   1.3158500000000000  25.0011599999999987
  19.7377600000000015  19.7377600000000015   9.2109500000000004
  19.7377600000000015  27.6328600000000009  11.8426600000000004
  27.6328600000000009   6.5792500000000000  22.3694600000000001
  22.3694600000000001   1.3158500000000000  27.6328600000000009
  22.3694600000000001  11.8426600000000004  27.6328600000000009
   1.3158500000000000  14.4743600000000008   1.3158500000000000
   3.9475500000000001   3.9475500000000001   3.9475500000000001
  27.6328600000000009  11.8426600000000004  14.4743600000000008
  19.7377600000000015  11.8426600000000004   3.9475500000000001
   6.5792500000000000  22.3694600000000001   3.9475500000000001
  17.1060599999999994  11.8426600000000004  17.1060599999999994
   1.3158500000000000  11.8426600000000004   3.9475500000000001
  19.7377600000000015  19.7377600000000015  27.6328600000000009
  27.6328600000000009  25.0011599999999987   9.2109500000000004
   3.9475500000000001  19.7377600000000015  27.6328600000000009
  25.0011599999999987  19.7377600000000015  19.7377600000000015
  19.7377600000000015   9.2109500000000004   3.9475500000000001
   9.2109500000000004  19.7377600000000015  27.6328600000000009
  14.4743600000000008  17.1060599999999994   3.9475500000000001
   3.9475500000000001  11.8426600000000004  19.7377600000000015
  27.6328600000000009  17.1060599999999994  22.3694600000000001
   3.9475500000000001  14.4743600000000008   9.2109500000000004
  27.6328600000000009  17.1060599999999994  11.8426600000000004
  27.6328600000000009  22.3694600000000001  17.1060599999999994
   3.9475500000000001   1.3158500000000000   1.3158500000000000
  27.6328600000000009  25.0011599999999987   1.3158500000000000
  19.7377600000000015  14.4743600000000008   9.2109500000000004
  11.8426600000000004  22.3694600000000001  19.7377600000000015
  19.7377600000000015  27.6328600000000009  19.7377600000000015
  14.4743600000000008   9.2109500000000004  17.1060599999999994
   6.5792500000000000  14.4743600000000008  17.1060599999999994
   9.2109500000000004   3.9475500000000001  14.4743600000000008
  17.1060599999999994  17.1060599999999994   3.9475500000000001
  14.4743600000000008  19.7377600000000015   1.3158500000000000
   3.9475500000000001  19.7377600000000015  22.3694600000000001
   9.2109500000000004  19.7377600000000015  14.4743600000000008
   9.2109500000000004   6.5792500000000000  14.4743600000000008
   9.2109500000000004   6.5792500000000000   3.9475500000000001
  11.8426600000000004  19.7377600000000015   3.9475500000000001
  11.8426600000000004  17.1060599999999994  27.6328600000000009
  14.4743600000000008  14.4743600000000008  19.7377600000000015
  25.0011599999999987  27.6328600000000009  14.4743600000000008
  27.6328600000000009   3.9475500000000001   1.3158500000000000
   6.5792500000000000  27.6328600000000009   9.2109500000000004
   3.9475500000000001  14.4743600000000008  27.6328600000000009
  19.7377600000000015  22.3694600000000001  22.3694600000000001
  22.3694600000000001   6.5792500000000000  25.0011599999999987
  19.7377600000000015   9.2109500000000004  27.6328600000000009
  27.6328600000000009  19.7377600000000015  22.3694600000000001
  19.7377600000000015  25.0011599999999987   1.3158500000000000
  25.0011599999999987   9.2109500000000004  14.4743600000000008
  14.4743600000000008  25.0011599999999987  25.0011599999999987
   9.2109500000000004  25.0011599999999987  22.3694600000000001
  27.6328600000000009  22.3694600000000001   9.2109500000000004
  22.3694600000000001   9.2109500000000004   9.2109500000000004
  27.6328600000000009  14.4743600000000008   6.5792500000000000
   1.3158500000000000   9.2109500000000004  11.8426600000000004
  14.4743600000000008  14.4743600000000008   3.9475500000000001
  11.8426600000000004   6.5792500000000000  27.6328600000000009
  19.7377600000000015  27.6328600000000009  27.6328600000000009
  11.8426600000000004   3.9475500000000001   3.9475500000000001
  11.8426600000000004  19.7377600000000015  14.4743600000000008
   1.3158500000000000   3.9475500000000001  14.4743600000000008
  27.6328600000000009  22.3694600000000001   6.5792500000000000
  19.7377600000000015  25.0011599999999987  25.0011599999999987
   3.9475500000000001  25.0011599999999987   9.2109500000000004
   6.5792500000000000   6.5792500000000000   3.9475500000000001
  11.8426600000000004  27.6328600000000009  14.4743600000000008
  11.8426600000000004   1.3158500000000000  22.3694600000000001
   1.3158500000000000  19.7377600000000015  19.7377600000000015
  14.4743600000000008  14.4743600000000008  14.4743600000000008
   3.9475500000000001  11.8426600000000004  14.4743600000000008
   9.2109500000000004   1.3158500000000000   3.9475500000000001
  14.4743600000000008   1.3158500000000000   1.3158500000000000
  25.0011599999999987   9.2109500000000004  27.6328600000000009
   1.3158500000000000   1.3158500000000000   1.3158500000000000
  14.4743600000000008  27.6328600000000009  25.0011599999999987
  11.8426600000000004  22.3694600000000001   6.5792500000000000
  17.1060599999999994  17.1060599999999994  27.6328600000000009
   1.3158500000000000  22.3694600000000001  14.4743600000000008
  27.6328600000000009   9.2109500000000004  25.0011599999999987
  25.0011599999999987  22.3694600000000001  19.7377600000000015
  25.0011599999999987   3.9475500000000001   6.5792500000000000
  17.1060599999999994  17.1060599999999994  11.8426600000000004
  14.4743600000000008  27.6328600000000009   3.9475500000000001
  22.3694600000000001  22.3694600000000001  19.7377600000000015
  11.8426600000000004  11.8426600000000004  19.7377600000000015
  25.0011599999999987  17.1060599999999994  11.8426600000000004
   1.3158500000000000  19.7377600000000015   6.5792500000000000
  17.1060599999999994  14.4743600000000008  22.3694600000000001
   6.5792500000000000  11.8426600000000004  14.4743600000000008
  25.0011599999999987  27.6328600000000009   1.3158500000000000
  11.8426600000000004   1.3158500000000000  14.4743600000000008
  11.8426600000000004  11.8426600000000004  17.1060599999999994
  25.0011599999999987  11.8426600000000004  27.6328600000000009
  27.6328600000000009  11.8426600000000004   6.5792500000000000
   9.2109500000000004  22.3694600000000001   6.5792500000000000
   3.9475500000000001  27.6328600000000009  11.8426600000000004
  11.8426600000000004  19.7377600000000015  17.1060599999999994
  11.8426600000000004  22.3694600000000001  14.4743600000000008
   6.5792500000000000  17.1060599999999994  19.7377600000000015
  22.3694600000000001   1.3158500000000000  25.0011599999999987
  11.8426600000000004  19.7377600000000015   6.5792500000000000
   3.9475500000000001  22.3694600000000001   3.9475500000000001
   9.2109500000000004  27.6328600000000009   9.2109500000000004
  14.4743600000000008   3.9475500000000001   3.9475500000000001
  27.6328600000000009  25.0011599999999987  25.0011599999999987
  25.0011599999999987   1.3158500000000000  11.8426600000000004
  19.7377600000000015   6.5792500000000000  14.4743600000000008
  17.1060599999999994  22.3694600000000001   1.3158500000000000
  19.7377600000000015  17.1060599999999994  11.8426600000000004
  11.8426600000000004   6.5792500000000000   9.2109500000000004
  11.8426600000000004  17.1060599999999994  19.7377600000000015
  25.0011599999999987   3.9475500000000001   3.9475500000000001
   1.3158500000000000  27.6328600000000009  25.0011599999999987
   9.2109500000000004  14.4743600000000008   3.9475500000000001
   3.9475500000000001   6.5792500000000000   3.9475500000000001
  19.7377600000000015   3.9475500000000001  22.3694600000000001
   9.2109500000000004  27.6328600000000009  17.1060599999999994
   1.3158500000000000   1.3158500000000000   9.2109500000000004
   3.9475500000000001  14.4743600000000008  14.4743600000000008
   1.3158500000000000  19.7377600000000015  17.1060599999999994
   9.2109500000000004  17.1060599999999994  27.6328600000000009
  25.0011599999999987  25.0011599999999987   9.2109500000000004
   6.5792500000000000  27.6328600000000009   1.3158500000000000
   3.9475500000000001   6.5792500000000000  17.1060599999999994
   3.9475500000000001  27.6328600000000009  25.0011599999999987
  22.3694600000000001  14.4743600000000008  11.8426600000000004
   6.5792500000000000  14.4743600000000008   6.5792500000000000
   6.5792500000000000  22.3694600000000001  14.4743600000000008
   9.2109500000000004  17.1060599999999994  14.4743600000000008
   1.3158500000000000  17.1060599999999994   1.3158500000000000
  25.0011599999999987  22.3694600000000001   1.3158500000000000
  17.1060599999999994  22.3694600000000001  22.3694600000000001
  27.6328600000000009   1.3158500000000000   1.3158500000000000
  27.6328600000000009  17.1060599999999994  19.7377600000000015
   9.2109500000000004  11.8426600000000004  14.4743600000000008
  14.4743600000000008   6.5792500000000000  14.4743600000000008
  14.4743600000000008  14.4743600000000008  27.6328600000000009
   3.9475500000000001  17.1060599999999994  11.8426600000000004
  11.8426600000000004   3.9475500000000001   1.3158500000000000
  19.7377600000000015   1.3158500000000000  17.1060599999999994
  17.1060599999999994   1.3158500000000000   3.9475500000000001
   9.2109500000000004  19.7377600000000015  11.8426600000000004
  22.3694600000000001  14.4743600000000008  14.4743600000000008
   1.3158500000000000  14.4743600000000008  17.1060599999999994
   9.2109500000000004  17.1060599999999994  25.0011599999999987
   9.2109500000000004   9.2109500000000004   9.2109500000000004
  11.8426600000000004  14.4743600000000008   6.5792500000000000
   6.5792500000000000   1.3158500000000000  14.4743600000000008
  25.0011599999999987  19.7377600000000015   1.3158500000000000
  19.7377600000000015  14.4743600000000008  14.4743600000000008
   1.3158500000000000  19.7377600000000015  14.4743600000000008
  22.3694600000000001   9.2109500000000004  17.1060599999999994
  17.1060599999999994  25.0011599999999987  14.4743600000000008
  19.7377600000000015   1.3158500000000000  27.6328600000000009
   6.5792500000000000   6.5792500000000000  19.7377600000000015
  27.6328600000000009  14.4743600000000008   1.3158500000000000
   3.9475500000000001   6.5792500000000000  11.8426600000000004
  25.0011599999999987   1.3158500000000000  27.6328600000000009
  19.7377600000000015  19.7377600000000015  19.7377600000000015
  14.4743600000000008   9.2109500000000004  14.4743600000000008
   9.2109500000000004   1.3158500000000000   9.2109500000000004
  22.3694600000000001   1.3158500000000000   9.2109500000000004
  17.1060599999999994   1.3158500000000000  14.4743600000000008
  14.4743600000000008   6.5792500000000000  11.8426600000000004