GeTe
  1.0000000000000000
    20.5388699999999993   0.0000000000000000   0.0000000000000000
     0.0000000000000000  20.5388699999999993   0.0000000000000000
     0.0000000000000000   0.0000000000000000  20.5388699999999993
  160  160
Cartesian
  19.2551899999999989  19.2551899999999989   8.9857600000000009
   6.4184000000000001   8.9857600000000009   8.9857600000000009
   8.9857600000000009   1.2836799999999999   1.2836799999999999
   6.4184000000000001  14.1204800000000006   1.2836799999999999
  14.1204800000000006  16.6878300000000017  16.6878300000000017
   6.4184000000000001   3.8510399999999998  14.1204800000000006
   6.4184000000000001  14.1204800000000006   3.8510399999999998
  16.6878300000000017  16.6878300000000017  16.6878300000000017
  14.1204800000000006  19.2551899999999989   6.4184000000000001
  19.2551899999999989   1.2836799999999999  11.5531199999999998
  16.6878300000000017  16.6878300000000017  14.1204800000000006
   8.9857600000000009   8.9857600000000009   6.4184000000000001
  14.1204800000000006   1.2836799999999999  19.2551899999999989
  16.6878300000000017   1.2836799999999999   6.4184000000000001
   8.9857600000000009  19.2551899999999989  19.2551899999999989
   8.9857600000000009  16.6878300000000017  11.5531199999999998
  19.2551899999999989   3.8510399999999998  16.6878300000000017
   3.8510399999999998  19.2551899999999989   8.9857600000000009
  19.2551899999999989  16.6878300000000017  19.2551899999999989
  11.5531199999999998  16.6878300000000017   3.8510399999999998
   1.2836799999999999  16.6878300000000017  16.6878300000000017
  11.5531199999999998   1.2836799999999999  14.1204800000000006
  16.6878300000000017   1.2836799999999999   3.8510399999999998
  11.5531199999999998  19.2551899999999989  16.6878300000000017
  11.5531199999999998  11.5531199999999998  16.6878300000000017
  11.5531199999999998   1.2836799999999999   6.4184000000000001
   3.8510399999999998  14.1204800000000006  14.1204800000000006
  14.1204800000000006  11.5531199999999998   8.9857600000000009
  16.6878300000000017   3.8510399999999998   3.8510399999999998
   3.8510399999999998  14.1204800000000006   1.2836799999999999
   8.9857600000000009   1.2836799999999999  11.5531199999999998
  19.2551899999999989   6.4184000000000001   8.9857600000000009
  14.1204800000000006   1.2836799999999999   1.2836799999999999
   3.8510399999999998  11.5531199999999998   6.4184000000000001
   3.8510399999999998   1.2836799999999999  16.6878300000000017
   8.9857600000000009  19.2551899999999989  14.1204800000000006
  19.2551899999999989  16.6878300000000017   1.2836799999999999
   6.4184000000000001   3.8510399999999998   8.9857600000000009
  19.2551899999999989   8.9857600000000009  16.6878300000000017
  14.1204800000000006  16.6878300000000017  14.1204800000000006
   1.2836799999999999  16.6878300000000017  11.5531199999999998
   1.2836799999999999   1.2836799999999999   8.9857600000000009
   6.4184000000000001   1.2836799999999999  14.1204800000000006
   6.4184000000000001   8.9857600000000009   3.8510399999999998
  14.1204800000000006   8.9857600000000009   8.9857600000000009
   3.8510399999999998   3.8510399999999998  11.5531199999999998
   3.8510399999999998   6.4184000000000001   6.4184000000000001
   1.2836799999999999   8.9857600000000009  16.6878300000000017
  16.6878300000000017   3.8510399999999998  11.5531199999999998
  11.5531199999999998  11.5531199999999998  19.2551899999999989
   3.8510399999999998  14.1204800000000006  19.2551899999999989
   3.8510399999999998  19.2551899999999989  19.2551899999999989
   3.8510399999999998   1.2836799999999999  11.5531199999999998
   1.2836799999999999   1.2836799999999999   1.2836799999999999
  16.6878300000000017   3.8510399999999998   8.9857600000000009
  16.6878300000000017   8.9857600000000009   6.4184000000000001
   6.4184000000000001   6.4184000000000001  16.6878300000000017
  11.5531199999999998   3.8510399999999998  16.6878300000000017
   3.8510399999999998   8.9857600000000009   8.9857600000000009
   3.8510399999999998   8.9857600000000009   6.4184000000000001
  11.5531199999999998  16.6878300000000017  14.1204800000000006
  19.2551899999999989   6.4184000000000001  11.5531199999999998
  14.1204800000000006  14.1204800000000006   8.9857600000000009
   8.9857600000000009  11.5531199999999998   8.9857600000000009
  19.2551899999999989  19.2551899999999989  11.5531199999999998
  19.2551899999999989  11.5531199999999998  16.6878300000000017
   6.4184000000000001  16.6878300000000017  19.2551899999999989
   6.4184000000000001   8.9857600000000009  19.2551899999999989
  14.1204800000000006   3.8510399999999998   8.9857600000000009
  19.2551899999999989   1.2836799999999999  14.1204800000000006
  14.1204800000000006   3.8510399999999998  11.5531199999999998
   6.4184000000000001   8.9857600000000009  16.6878300000000017
  14.1204800000000006   3.8510399999999998   6.4184000000000001
  14.1204800000000006   6.4184000000000001  11.5531199999999998
   3.8510399999999998   8.9857600000000009  16.6878300000000017
  14.1204800000000006  19.2551899999999989   1.2836799999999999
   8.9857600000000009  16.6878300000000017  16.6878300000000017
  16.6878300000000017  19.2551899999999989   1.2836799999999999
   1.2836799999999999   3.8510399999999998  19.2551899999999989
  11.5531199999999998   3.8510399999999998  19.2551899999999989
  14.1204800000000006  16.6878300000000017   1.2836799999999999
  16.6878300000000017   1.2836799999999999  14.1204800000000006
   6.4184000000000001  16.6878300000000017   8.9857600000000009
  16.6878300000000017   3.8510399999999998   6.4184000000000001
   6.4184000000000001   6.4184000000000001  11.5531199999999998
   8.9857600000000009   6.4184000000000001  14.1204800000000006
  16.6878300000000017  16.6878300000000017   1.2836799999999999
   8.9857600000000009  16.6878300000000017   8.9857600000000009
   6.4184000000000001   6.4184000000000001  14.1204800000000006
  16.6878300000000017  19.2551899999999989  11.5531199999999998
  16.6878300000000017   6.4184000000000001   3.8510399999999998
   6.4184000000000001  16.6878300000000017   3.8510399999999998
   8.9857600000000009   1.2836799999999999   3.8510399999999998
   6.4184000000000001   3.8510399999999998   3.8510399999999998
  16.6878300000000017  14.1204800000000006  16.6878300000000017
   8.9857600000000009   8.9857600000000009   1.2836799999999999
   6.4184000000000001  19.2551899999999989   8.9857600000000009
  19.2551899999999989  19.2551899999999989   3.8510399999999998
   3.8510399999999998   6.4184000000000001  11.5531199999999998
  11.5531199999999998   8.9857600000000009  14.1204800000000006
  16.6878300000000017   3.8510399999999998  19.2551899999999989
  16.6878300000000017  11.5531199999999998   6.4184000000000001
  16.6878300000000017   1.2836799999999999  11.5531199999999998
  11.5531199999999998   8.9857600000000009  19.2551899999999989
   8.9857600000000009   6.4184000000000001   8.9857600000000009
   8.9857600000000009   3.8510399999999998  14.1204800000000006
   3.8510399999999998   8.9857600000000009   3.8510399999999998
   3.8510399999999998  16.6878300000000017   1.2836799999999999
  19.2551899999999989   8.9857600000000009   3.8510399999999998
  16.6878300000000017  16.6878300000000017  19.2551899999999989
   8.9857600000000009   6.4184000000000001  19.2551899999999989
   8.9857600000000009   1.2836799999999999  16.6878300000000017
  19.2551899999999989   6.4184000000000001   1.2836799999999999
  11.5531199999999998   8.9857600000000009  16.6878300000000017
   3.8510399999999998   6.4184000000000001   1.2836799999999999
  19.2551899999999989   8.9857600000000009   1.2836799999999999
   1.2836799999999999  16.6878300000000017   3.8510399999999998
  14.1204800000000006   1.2836799999999999  14.1204800000000006
   8.9857600000000009  11.5531199999999998  14.1204800000000006
  16.6878300000000017   8.9857600000000009  19.2551899999999989
  11.5531199999999998   1.2836799999999999   1.2836799999999999
   1.2836799999999999  11.5531199999999998  19.2551899999999989
  19.2551899999999989  19.2551899999999989   1.2836799999999999
  16.6878300000000017  14.1204800000000006   6.4184000000000001
  11.5531199999999998  14.1204800000000006   3.8510399999999998
  19.2551899999999989   6.4184000000000001   3.8510399999999998
  16.6878300000000017   6.4184000000000001   1.2836799999999999
   1.2836799999999999   6.4184000000000001   8.9857600000000009
   3.8510399999999998  19.2551899999999989  16.6878300000000017
  16.6878300000000017   3.8510399999999998  16.6878300000000017
   3.8510399999999998   8.9857600000000009  11.5531199999999998
   8.9857600000000009  16.6878300000000017   3.8510399999999998
  16.6878300000000017  19.2551899999999989  16.6878300000000017
  16.6878300000000017   8.9857600000000009   8.9857600000000009
   8.9857600000000009  11.5531199999999998   6.4184000000000001
   3.8510399999999998  11.5531199999999998  16.6878300000000017
   1.2836799999999999   1.2836799999999999  19.2551899999999989
   3.8510399999999998   8.9857600000000009  19.2551899999999989
   1.2836799999999999  14.1204800000000006  16.6878300000000017
   1.2836799999999999  14.1204800000000006   6.4184000000000001
  14.1204800000000006   3.8510399999999998   3.8510399999999998
   1.2836799999999999   1.2836799999999999   3.8510399999999998
   6.4184000000000001   1.2836799999999999   6.4184000000000001
   3.8510399999999998   8.9857600000000009   1.2836799999999999
   6.4184000000000001   3.8510399999999998  19.2551899999999989
   3.8510399999999998   3.8510399999999998  16.6878300000000017
  19.2551899999999989   8.9857600000000009  14.1204800000000006
  19.2551899999999989   3.8510399999999998  19.2551899999999989
   8.9857600000000009  14.1204800000000006   6.4184000000000001
   8.9857600000000009   8.9857600000000009   3.8510399999999998
  14.1204800000000006   8.9857600000000009  16.6878300000000017
   6.4184000000000001  14.1204800000000006   8.9857600000000009
  11.5531199999999998  19.2551899999999989  11.5531199999999998
  19.2551899999999989   3.8510399999999998  11.5531199999999998
  11.5531199999999998  11.5531199999999998  14.1204800000000006
   8.9857600000000009  19.2551899999999989   3.8510399999999998
   1.2836799999999999  11.5531199999999998   6.4184000000000001
   1.2836799999999999   6.4184000000000001  16.6878300000000017
   3.8510399999999998   3.8510399999999998  19.2551899999999989
   8.9857600000000009   3.8510399999999998   3.8510399999999998
   8.9857600000000009   8.9857600000000009  19.2551899999999989
  16.6878300000000017  16.6878300000000017   3.8510399999999998
  19.2551899999999989   3.8510399999999998  14.1204800000000006
   1.2836799999999999  16.6878300000000017   8.9857600000000009
   1.2836799999999999  19.2551899999999989  14.1204800000000006
   3.8510399999999998  11.5531199999999998   1.2836799999999999
  16.6878300000000017  14.1204800000000006  19.2551899999999989
   3.8510399999999998  11.5531199999999998   8.9857600000000009
   6.4184000000000001   1.2836799999999999   1.2836799999999999
  19.2551899999999989   8.9857600000000009   6.4184000000000001
   3.8510399999999998  16.6878300000000017  11.5531199999999998
  19.2551899999999989  14.1204800000000006  16.6878300000000017
  16.6878300000000017  11.5531199999999998   8.9857600000000009
  14.1204800000000006   8.9857600000000009   6.4184000000000001
   6.4184000000000001  11.5531199999999998  19.2551899999999989
  19.2551899999999989  16.6878300000000017   3.8510399999999998
  11.5531199999999998   1.2836799999999999  16.6878300000000017
   3.8510399999999998   1.2836799999999999   6.4184000000000001
  14.1204800000000006   1.2836799999999999   8.9857600000000009
  19.2551899999999989  19.2551899999999989   6.4184000000000001
   6.4184000000000001   1.2836799999999999   8.9857600000000009
   3.8510399999999998  16.6878300000000017   3.8510399999999998
  11.5531199999999998   8.9857600000000009   3.8510399999999998
   8.9857600000000009   1.2836799999999999   6.4184000000000001
   6.4184000000000001   1.2836799999999999  16.6878300000000017
   8.9857600000000009   8.9857600000000009  16.6878300000000017
   3.8510399999999998   6.4184000000000001   3.8510399999999998
   8.9857600000000009  19.2551899999999989   6.4184000000000001
  14.1204800000000006  16.6878300000000017   8.9857600000000009
   8.9857600000000009  11.5531199999999998  19.2551899999999989
   1.2836799999999999   6.4184000000000001   6.4184000000000001
  14.1204800000000006  19.2551899999999989  11.5531199999999998
   6.4184000000000001  16.6878300000000017  14.1204800000000006
  16.6878300000000017   1.2836799999999999   1.2836799999999999
   3.8510399999999998   1.2836799999999999  19.2551899999999989
  16.6878300000000017  14.1204800000000006   8.9857600000000009
  19.2551899999999989  14.1204800000000006   8.9857600000000009
   1.2836799999999999  19.2551899999999989  11.5531199999999998
   3.8510399999999998   1.2836799999999999  14.1204800000000006
   6.4184000000000001  16.6878300000000017  11.5531199999999998
  14.1204800000000006   8.9857600000000009  14.1204800000000006
  16.6878300000000017  11.5531199999999998  11.5531199999999998
  14.1204800000000006  11.5531199999999998   1.2836799999999999
   6.4184000000000001  16.6878300000000017  16.6878300000000017
  14.1204800000000006   6.4184000000000001  14.1204800000000006
  14.1204800000000006  11.5531199999999998  19.2551899999999989
  14.1204800000000006   8.9857600000000009   1.2836799999999999
  11.5531199999999998   8.9857600000000009   6.4184000000000001
  19.2551899999999989   8.9857600000000009  19.2551899999999989
  11.5531199999999998   3.8510399999999998  11.5531199999999998
  19.2551899999999989   6.4184000000000001  16.6878300000000017
  19.2551899999999989  14.1204800000000006  19.2551899999999989
   6.4184000000000001   8.9857600000000009  11.5531199999999998
  19.2551899999999989  16.6878300000000017   6.4184000000000001
   8.9857600000000009   1.2836799999999999   8.9857600000000009
   6.4184000000000001   8.9857600000000009   6.4184000000000001
   6.4184000000000001   3.8510399999999998   6.4184000000000001
  14.1204800000000006  14.1204800000000006   3.8510399999999998
  16.6878300000000017  11.5531199999999998  14.1204800000000006
   3.8510399999999998  19.2551899999999989  14.1204800000000006
  16.6878300000000017  14.1204800000000006  11.5531199999999998
  16.6878300000000017  14.1204800000000006  14.1204800000000006
   8.9857600000000009   8.9857600000000009  11.5531199999999998
   1.2836799999999999  19.2551899999999989  16.6878300000000017
  11.5531199999999998   1.2836799999999999  11.5531199999999998
  14.1204800000000006  14.1204800000000006   1.2836799999999999
  19.2551899999999989   1.2836799999999999   8.9857600000000009
   3.8510399999999998   3.8510399999999998   3.8510399999999998
   6.4184000000000001   8.9857600000000009  14.1204800000000006
   6.4184000000000001   3.8510399999999998  16.6878300000000017
  11.5531199999999998  14.1204800000000006  14.1204800000000006
   6.4184000000000001  14.1204800000000006  19.2551899999999989
  14.1204800000000006   6.4184000000000001  19.2551899999999989
   3.8510399999999998  16.6878300000000017   6.4184000000000001
   6.4184000000000001  19.2551899999999989  14.1204800000000006
   1.2836799999999999   3.8510399999999998   1.2836799999999999
   1.2836799999999999  19.2551899999999989   6.4184000000000001
  11.5531199999999998  19.2551899999999989   6.4184000000000001
  11.5531199999999998   6.4184000000000001  19.2551899999999989
  14.1204800000000006   1.2836799999999999   6.4184000000000001
   8.9857600000000009   1.2836799999999999  19.2551899999999989
   3.8510399999999998  11.5531199999999998  19.2551899999999989
  11.5531199999999998   6.4184000000000001  14.1204800000000006
  14.1204800000000006   6.4184000000000001  16.6878300000000017
   8.9857600000000009  19.2551899999999989   8.9857600000000009
   3.8510399999999998  11.5531199999999998  14.1204800000000006
   1.2836799999999999   1.2836799999999999  11.5531199999999998
  16.6878300000000017   3.8510399999999998   1.2836799999999999
  11.5531199999999998  19.2551899999999989  14.1204800000000006
  16.6878300000000017  19.2551899999999989  19.2551899999999989
  14.1204800000000006   1.2836799999999999  11.5531199999999998
   1.2836799999999999  14.1204800000000006   8.9857600000000009
  14.1204800000000006  16.6878300000000017   3.8510399999999998
  16.6878300000000017   1.2836799999999999   8.9857600000000009
  19.2551899999999989  11.5531199999999998  14.1204800000000006
   1.2836799999999999   3.8510399999999998  16.6878300000000017
   8.9857600000000009   3.8510399999999998  11.5531199999999998
  16.6878300000000017   6.4184000000000001  11.5531199999999998
   3.8510399999999998  11.5531199999999998  11.5531199999999998
  11.5531199999999998   6.4184000000000001   8.9857600000000009
   6.4184000000000001   6.4184000000000001   3.8510399999999998
  11.5531199999999998  11.5531199999999998   6.4184000000000001
   1.2836799999999999  11.5531199999999998   1.2836799999999999
   8.9857600000000009  16.6878300000000017  14.1204800000000006
  14.1204800000000006  19.2551899999999989  19.2551899999999989
  14.1204800000000006  16.6878300000000017   6.4184000000000001
   6.4184000000000001  19.2551899999999989   1.2836799999999999
  19.2551899999999989   1.2836799999999999   6.4184000000000001
  16.6878300000000017  16.6878300000000017   6.4184000000000001
   1.2836799999999999   6.4184000000000001   1.2836799999999999
  14.1204800000000006  11.5531199999999998  16.6878300000000017
  11.5531199999999998  11.5531199999999998   3.8510399999999998
   3.8510399999999998  16.6878300000000017  14.1204800000000006
   8.9857600000000009  14.1204800000000006  16.6878300000000017
   6.4184000000000001  14.1204800000000006   6.4184000000000001
  11.5531199999999998  16.6878300000000017  11.5531199999999998
  19.2551899999999989  16.6878300000000017  14.1204800000000006
   1.2836799999999999  11.5531199999999998  14.1204800000000006
  16.6878300000000017   8.9857600000000009  11.5531199999999998
  14.1204800000000006  11.5531199999999998   3.8510399999999998
   1.2836799999999999  16.6878300000000017  14.1204800000000006
   6.4184000000000001   6.4184000000000001   6.4184000000000001
  11.5531199999999998  14.1204800000000006  16.6878300000000017
   6.4184000000000001   1.2836799999999999  11.5531199999999998
  11.5531199999999998   8.9857600000000009   8.9857600000000009
  14.1204800000000006  14.1204800000000006  11.5531199999999998
   1.2836799999999999   3.8510399999999998  11.5531199999999998
   3.8510399999999998  14.1204800000000006   3.8510399999999998
  11.5531199999999998  16.6878300000000017   6.4184000000000001
   8.9857600000000009  19.2551899999999989   1.2836799999999999
  11.5531199999999998  14.1204800000000006  19.2551899999999989
   8.9857600000000009   1.2836799999999999  14.1204800000000006
  11.5531199999999998  14.1204800000000006  11.5531199999999998
  16.6878300000000017  16.6878300000000017   8.9857600000000009
   6.4184000000000001  16.6878300000000017   6.4184000000000001
  14.1204800000000006   1.2836799999999999  16.6878300000000017
   1.2836799999999999   3.8510399999999998  14.1204800000000006
   8.9857600000000009  11.5531199999999998   3.8510399999999998
   3.8510399999999998  19.2551899999999989   3.8510399999999998
   8.9857600000000009   8.9857600000000009   8.9857600000000009
   6.4184000000000001   8.9857600000000009   1.2836799999999999
  14.1204800000000006   3.8510399999999998  16.6878300000000017
   1.2836799999999999   1.2836799999999999   6.4184000000000001
  11.5531199999999998   1.2836799999999999   8.9857600000000009
   1.2836799999999999  19.2551899999999989   3.8510399999999998
  19.2551899999999989  11.5531199999999998   6.4184000000000001
   1.2836799999999999  16.6878300000000017  19.2551899999999989
   8.9857600000000009  14.1204800000000006   3.8510399999999998
  19.2551899999999989  14.1204800000000006  14.1204800000000006
   6.4184000000000001  11.5531199999999998  14.1204800000000006
  19.2551899999999989  16.6878300000000017   8.9857600000000009
   3.8510399999999998  16.6878300000000017  19.2551899999999989
   8.9857600000000009  19.2551899999999989  16.6878300000000017
  14.1204800000000006   6.4184000000000001   8.9857600000000009
  19.2551899999999989  16.6878300000000017  16.6878300000000017
  19.2551899999999989   6.4184000000000001  19.2551899999999989
   8.9857600000000009   6.4184000000000001  16.6878300000000017
  19.2551899999999989  14.1204800000000006   6.4184000000000001
   1.2836799999999999  11.5531199999999998   8.9857600000000009
  19.2551899999999989  14.1204800000000006   1.2836799999999999
