GeTe
  1.0000000000000000
    30.2663399999999996   0.0000000000000000   0.0000000000000000
     0.0000000000000000  30.2663399999999996   0.0000000000000000
     0.0000000000000000   0.0000000000000000  30.2663399999999996
   Ge   Te
  512  512
Cartesian
  16.3942699999999988  21.4386599999999987  11.3498800000000006
   8.8276800000000009  21.4386599999999987   6.3054899999999998
  13.8720700000000008   1.2611000000000001  13.8720700000000008
  11.3498800000000006  21.4386599999999987   8.8276800000000009
  16.3942699999999988   3.7832900000000000  21.4386599999999987
  23.9608500000000006   8.8276800000000009  11.3498800000000006
  26.4830499999999986  11.3498800000000006  13.8720700000000008
  23.9608500000000006  23.9608500000000006   6.3054899999999998
  13.8720700000000008  21.4386599999999987  13.8720700000000008
   1.2611000000000001   1.2611000000000001  26.4830499999999986
  18.9164600000000007  18.9164600000000007   8.8276800000000009
  11.3498800000000006  29.0052400000000006   8.8276800000000009
  23.9608500000000006   8.8276800000000009  21.4386599999999987
   8.8276800000000009  26.4830499999999986  16.3942699999999988
  13.8720700000000008  11.3498800000000006   1.2611000000000001
   6.3054899999999998   1.2611000000000001   3.7832900000000000
   3.7832900000000000  26.4830499999999986  23.9608500000000006
  16.3942699999999988   3.7832900000000000  13.8720700000000008
  26.4830499999999986   6.3054899999999998  18.9164600000000007
  23.9608500000000006   8.8276800000000009   1.2611000000000001
  18.9164600000000007  18.9164600000000007   3.7832900000000000
   3.7832900000000000  21.4386599999999987  21.4386599999999987
  16.3942699999999988  26.4830499999999986   8.8276800000000009
  11.3498800000000006  29.0052400000000006  16.3942699999999988
   8.8276800000000009  13.8720700000000008  18.9164600000000007
  21.4386599999999987   8.8276800000000009   8.8276800000000009
  21.4386599999999987  29.0052400000000006   8.8276800000000009
  11.3498800000000006   6.3054899999999998   8.8276800000000009
  11.3498800000000006  16.3942699999999988   1.2611000000000001
   8.8276800000000009   3.7832900000000000   6.3054899999999998
   1.2611000000000001   6.3054899999999998  16.3942699999999988
   8.8276800000000009  23.9608500000000006  16.3942699999999988
  18.9164600000000007  13.8720700000000008  16.3942699999999988
  21.4386599999999987  21.4386599999999987  16.3942699999999988
  13.8720700000000008  21.4386599999999987  18.9164600000000007
   1.2611000000000001  26.4830499999999986  23.9608500000000006
  13.8720700000000008  29.0052400000000006   3.7832900000000000
  26.4830499999999986  21.4386599999999987  16.3942699999999988
   1.2611000000000001  18.9164600000000007  21.4386599999999987
  18.9164600000000007   3.7832900000000000   8.8276800000000009
   8.8276800000000009   1.2611000000000001  23.9608500000000006
   3.7832900000000000   3.7832900000000000   1.2611000000000001
  13.8720700000000008  11.3498800000000006  26.4830499999999986
   1.2611000000000001  16.3942699999999988  18.9164600000000007
  23.9608500000000006   6.3054899999999998  26.4830499999999986
  13.8720700000000008  21.4386599999999987  16.3942699999999988
  21.4386599999999987   3.7832900000000000   1.2611000000000001
  11.3498800000000006  29.0052400000000006  26.4830499999999986
  21.4386599999999987  18.9164600000000007  26.4830499999999986
  16.3942699999999988   6.3054899999999998  23.9608500000000006
  29.0052400000000006  13.8720700000000008   1.2611000000000001
  29.0052400000000006   1.2611000000000001   3.7832900000000000
   3.7832900000000000  18.9164600000000007  29.0052400000000006
  29.0052400000000006  29.0052400000000006  18.9164600000000007
   6.3054899999999998  23.9608500000000006  26.4830499999999986
  13.8720700000000008  16.3942699999999988  16.3942699999999988
  23.9608500000000006  26.4830499999999986   1.2611000000000001
  11.3498800000000006   8.8276800000000009   1.2611000000000001
  26.4830499999999986  11.3498800000000006  16.3942699999999988
  11.3498800000000006  18.9164600000000007   1.2611000000000001
   3.7832900000000000  13.8720700000000008  11.3498800000000006
  23.9608500000000006  21.4386599999999987   3.7832900000000000
   6.3054899999999998  11.3498800000000006  29.0052400000000006
  29.0052400000000006  26.4830499999999986  18.9164600000000007
   3.7832900000000000  16.3942699999999988  18.9164600000000007
  13.8720700000000008   8.8276800000000009  16.3942699999999988
   3.7832900000000000  11.3498800000000006  18.9164600000000007
  13.8720700000000008  18.9164600000000007  13.8720700000000008
  21.4386599999999987  26.4830499999999986   3.7832900000000000
  23.9608500000000006  18.9164600000000007  26.4830499999999986
   8.8276800000000009  11.3498800000000006   6.3054899999999998
   1.2611000000000001  29.0052400000000006  18.9164600000000007
   8.8276800000000009  11.3498800000000006  21.4386599999999987
  23.9608500000000006  29.0052400000000006   8.8276800000000009
  18.9164600000000007   1.2611000000000001  21.4386599999999987
  29.0052400000000006  26.4830499999999986   3.7832900000000000
  26.4830499999999986  16.3942699999999988  13.8720700000000008
  23.9608500000000006  11.3498800000000006  18.9164600000000007
  13.8720700000000008   3.7832900000000000  18.9164600000000007
  29.0052400000000006  18.9164600000000007  21.4386599999999987
  26.4830499999999986  13.8720700000000008  26.4830499999999986
  23.9608500000000006   6.3054899999999998   3.7832900000000000
  23.9608500000000006  23.9608500000000006  13.8720700000000008
  23.9608500000000006   6.3054899999999998  16.3942699999999988
  13.8720700000000008  13.8720700000000008  21.4386599999999987
  16.3942699999999988  26.4830499999999986   1.2611000000000001
  29.0052400000000006  11.3498800000000006   6.3054899999999998
   3.7832900000000000  16.3942699999999988  21.4386599999999987
   6.3054899999999998  16.3942699999999988  13.8720700000000008
  21.4386599999999987   6.3054899999999998  26.4830499999999986
   1.2611000000000001  13.8720700000000008  13.8720700000000008
  18.9164600000000007  18.9164600000000007  18.9164600000000007
  21.4386599999999987  16.3942699999999988   1.2611000000000001
   8.8276800000000009  16.3942699999999988  13.8720700000000008
  18.9164600000000007  23.9608500000000006  21.4386599999999987
  16.3942699999999988  16.3942699999999988   1.2611000000000001
   8.8276800000000009  21.4386599999999987  18.9164600000000007
  21.4386599999999987  18.9164600000000007  18.9164600000000007
  21.4386599999999987   1.2611000000000001  18.9164600000000007
  21.4386599999999987  13.8720700000000008  29.0052400000000006
  18.9164600000000007  16.3942699999999988  26.4830499999999986
  23.9608500000000006  16.3942699999999988  26.4830499999999986
  13.8720700000000008  21.4386599999999987   6.3054899999999998
   6.3054899999999998  13.8720700000000008  23.9608500000000006
   1.2611000000000001   1.2611000000000001   6.3054899999999998
  21.4386599999999987  23.9608500000000006  18.9164600000000007
  23.9608500000000006  29.0052400000000006  18.9164600000000007
   8.8276800000000009  26.4830499999999986   3.7832900000000000
  13.8720700000000008  11.3498800000000006   3.7832900000000000
   8.8276800000000009  21.4386599999999987  23.9608500000000006
  23.9608500000000006  16.3942699999999988  29.0052400000000006
  23.9608500000000006  21.4386599999999987  26.4830499999999986
  29.0052400000000006  29.0052400000000006  11.3498800000000006
  18.9164600000000007   8.8276800000000009   3.7832900000000000
  11.3498800000000006  29.0052400000000006   1.2611000000000001
  18.9164600000000007   1.2611000000000001   6.3054899999999998
   6.3054899999999998   6.3054899999999998  11.3498800000000006
   8.8276800000000009   1.2611000000000001  16.3942699999999988
   1.2611000000000001   3.7832900000000000   6.3054899999999998
  26.4830499999999986  26.4830499999999986  26.4830499999999986
  11.3498800000000006   8.8276800000000009  29.0052400000000006
  29.0052400000000006  23.9608500000000006   1.2611000000000001
   1.2611000000000001  16.3942699999999988   3.7832900000000000
  13.8720700000000008  26.4830499999999986   8.8276800000000009
   1.2611000000000001  13.8720700000000008   1.2611000000000001
  29.0052400000000006  21.4386599999999987  16.3942699999999988
  18.9164600000000007  13.8720700000000008  21.4386599999999987
   3.7832900000000000  11.3498800000000006   1.2611000000000001
  18.9164600000000007  13.8720700000000008  26.4830499999999986
  11.3498800000000006   6.3054899999999998   6.3054899999999998
  18.9164600000000007  29.0052400000000006  11.3498800000000006
  26.4830499999999986  21.4386599999999987   6.3054899999999998
  18.9164600000000007   3.7832900000000000  18.9164600000000007
  11.3498800000000006   6.3054899999999998   3.7832900000000000
  13.8720700000000008  18.9164600000000007  26.4830499999999986
   6.3054899999999998  23.9608500000000006   3.7832900000000000
   8.8276800000000009   1.2611000000000001   8.8276800000000009
  29.0052400000000006  21.4386599999999987  21.4386599999999987
  11.3498800000000006  11.3498800000000006  16.3942699999999988
  11.3498800000000006  21.4386599999999987  13.8720700000000008
   6.3054899999999998  11.3498800000000006  23.9608500000000006
  16.3942699999999988   8.8276800000000009  16.3942699999999988
  23.9608500000000006  16.3942699999999988  23.9608500000000006
   6.3054899999999998  26.4830499999999986   8.8276800000000009
  16.3942699999999988  18.9164600000000007   8.8276800000000009
  29.0052400000000006  11.3498800000000006  13.8720700000000008
   8.8276800000000009  11.3498800000000006   8.8276800000000009
  18.9164600000000007   8.8276800000000009  29.0052400000000006
  16.3942699999999988  29.0052400000000006  21.4386599999999987
  29.0052400000000006  18.9164600000000007  18.9164600000000007
   1.2611000000000001  21.4386599999999987  18.9164600000000007
  23.9608500000000006   1.2611000000000001  26.4830499999999986
   3.7832900000000000  13.8720700000000008  16.3942699999999988
  11.3498800000000006  13.8720700000000008  13.8720700000000008
   1.2611000000000001  18.9164600000000007  16.3942699999999988
  11.3498800000000006   8.8276800000000009   6.3054899999999998
  13.8720700000000008  26.4830499999999986  18.9164600000000007
  21.4386599999999987  29.0052400000000006  23.9608500000000006
  21.4386599999999987  21.4386599999999987  26.4830499999999986
  13.8720700000000008   8.8276800000000009   3.7832900000000000
  11.3498800000000006  18.9164600000000007  21.4386599999999987
  26.4830499999999986   8.8276800000000009  18.9164600000000007
  26.4830499999999986  23.9608500000000006   3.7832900000000000
   8.8276800000000009   3.7832900000000000   3.7832900000000000
  11.3498800000000006   6.3054899999999998  11.3498800000000006
   8.8276800000000009  18.9164600000000007   3.7832900000000000
  21.4386599999999987  13.8720700000000008  18.9164600000000007
   3.7832900000000000  11.3498800000000006   8.8276800000000009
  18.9164600000000007  21.4386599999999987  18.9164600000000007
   1.2611000000000001  23.9608500000000006  26.4830499999999986
   6.3054899999999998  26.4830499999999986  23.9608500000000006
   1.2611000000000001  29.0052400000000006   8.8276800000000009
   6.3054899999999998   3.7832900000000000  13.8720700000000008
   1.2611000000000001  23.9608500000000006  18.9164600000000007
  16.3942699999999988  21.4386599999999987   3.7832900000000000
  16.3942699999999988   8.8276800000000009  21.4386599999999987
   8.8276800000000009  26.4830499999999986  11.3498800000000006
  21.4386599999999987   3.7832900000000000   3.7832900000000000
  29.0052400000000006   3.7832900000000000  18.9164600000000007
  21.4386599999999987  29.0052400000000006  26.4830499999999986
  16.3942699999999988  13.8720700000000008  16.3942699999999988
  11.3498800000000006  23.9608500000000006  13.8720700000000008
  26.4830499999999986   3.7832900000000000   1.2611000000000001
  26.4830499999999986   1.2611000000000001   1.2611000000000001
  16.3942699999999988  26.4830499999999986  11.3498800000000006
  23.9608500000000006  13.8720700000000008   1.2611000000000001
   8.8276800000000009   8.8276800000000009  18.9164600000000007
   3.7832900000000000  26.4830499999999986  29.0052400000000006
  29.0052400000000006   1.2611000000000001  29.0052400000000006
  18.9164600000000007  16.3942699999999988  18.9164600000000007
  29.0052400000000006   8.8276800000000009  11.3498800000000006
   3.7832900000000000   6.3054899999999998  21.4386599999999987
  23.9608500000000006  16.3942699999999988  18.9164600000000007
  11.3498800000000006  23.9608500000000006  26.4830499999999986
   3.7832900000000000  23.9608500000000006  29.0052400000000006
   1.2611000000000001   1.2611000000000001  11.3498800000000006
  18.9164600000000007  26.4830499999999986   6.3054899999999998
  16.3942699999999988  23.9608500000000006   8.8276800000000009
  21.4386599999999987  13.8720700000000008   3.7832900000000000
  23.9608500000000006  26.4830499999999986  16.3942699999999988
  21.4386599999999987  21.4386599999999987   3.7832900000000000
  18.9164600000000007  26.4830499999999986  26.4830499999999986
   6.3054899999999998  26.4830499999999986   1.2611000000000001
   1.2611000000000001  13.8720700000000008  18.9164600000000007
   6.3054899999999998   1.2611000000000001   6.3054899999999998
   6.3054899999999998  26.4830499999999986  29.0052400000000006
  29.0052400000000006  23.9608500000000006  13.8720700000000008
   1.2611000000000001   1.2611000000000001  16.3942699999999988
  21.4386599999999987  11.3498800000000006  13.8720700000000008
  23.9608500000000006   6.3054899999999998  23.9608500000000006
   6.3054899999999998   8.8276800000000009  23.9608500000000006
  29.0052400000000006  13.8720700000000008  21.4386599999999987
   6.3054899999999998   3.7832900000000000   8.8276800000000009
  11.3498800000000006  26.4830499999999986  29.0052400000000006
   8.8276800000000009   3.7832900000000000  23.9608500000000006
  29.0052400000000006  11.3498800000000006  21.4386599999999987
  29.0052400000000006  11.3498800000000006  29.0052400000000006
  11.3498800000000006  23.9608500000000006   6.3054899999999998
   8.8276800000000009   3.7832900000000000  21.4386599999999987
  16.3942699999999988  16.3942699999999988  29.0052400000000006
  26.4830499999999986   3.7832900000000000  21.4386599999999987
  18.9164600000000007  23.9608500000000006  26.4830499999999986
  16.3942699999999988   3.7832900000000000  23.9608500000000006
  13.8720700000000008   1.2611000000000001  29.0052400000000006
  21.4386599999999987  21.4386599999999987  11.3498800000000006
  21.4386599999999987   8.8276800000000009  26.4830499999999986
   8.8276800000000009   1.2611000000000001   3.7832900000000000
  18.9164600000000007  18.9164600000000007  21.4386599999999987
  11.3498800000000006  18.9164600000000007   8.8276800000000009
  23.9608500000000006  23.9608500000000006  29.0052400000000006
  13.8720700000000008  13.8720700000000008  18.9164600000000007
  21.4386599999999987   8.8276800000000009  16.3942699999999988
  29.0052400000000006  29.0052400000000006   3.7832900000000000
  11.3498800000000006   1.2611000000000001  13.8720700000000008
  21.4386599999999987  29.0052400000000006   1.2611000000000001
  16.3942699999999988  18.9164600000000007  23.9608500000000006
   1.2611000000000001  29.0052400000000006  23.9608500000000006
  16.3942699999999988   3.7832900000000000  16.3942699999999988
  29.0052400000000006  16.3942699999999988  13.8720700000000008
  26.4830499999999986  23.9608500000000006  13.8720700000000008
  26.4830499999999986  26.4830499999999986   3.7832900000000000
   6.3054899999999998   6.3054899999999998  16.3942699999999988
   3.7832900000000000  16.3942699999999988  11.3498800000000006
   8.8276800000000009   8.8276800000000009  13.8720700000000008
   8.8276800000000009  11.3498800000000006  23.9608500000000006
   6.3054899999999998   1.2611000000000001   1.2611000000000001
   1.2611000000000001  16.3942699999999988  11.3498800000000006
  21.4386599999999987  21.4386599999999987  21.4386599999999987
   3.7832900000000000  26.4830499999999986   1.2611000000000001
  11.3498800000000006   1.2611000000000001  18.9164600000000007
  23.9608500000000006  23.9608500000000006   1.2611000000000001
  11.3498800000000006  18.9164600000000007  13.8720700000000008
   1.2611000000000001  18.9164600000000007   1.2611000000000001
  29.0052400000000006   8.8276800000000009   3.7832900000000000
  11.3498800000000006   8.8276800000000009  16.3942699999999988
  23.9608500000000006  29.0052400000000006  11.3498800000000006
   8.8276800000000009  11.3498800000000006  18.9164600000000007
  29.0052400000000006  16.3942699999999988   1.2611000000000001
  23.9608500000000006  13.8720700000000008  21.4386599999999987
  29.0052400000000006  26.4830499999999986  26.4830499999999986
  26.4830499999999986   3.7832900000000000  16.3942699999999988
   8.8276800000000009   6.3054899999999998  29.0052400000000006
   8.8276800000000009  11.3498800000000006  13.8720700000000008
  26.4830499999999986   1.2611000000000001  29.0052400000000006
  18.9164600000000007   6.3054899999999998  23.9608500000000006
   1.2611000000000001  21.4386599999999987   1.2611000000000001
  21.4386599999999987   3.7832900000000000  18.9164600000000007
  23.9608500000000006  18.9164600000000007   8.8276800000000009
  21.4386599999999987   1.2611000000000001  13.8720700000000008
  29.0052400000000006   8.8276800000000009  16.3942699999999988
   3.7832900000000000   1.2611000000000001   1.2611000000000001
  13.8720700000000008  11.3498800000000006  11.3498800000000006
  21.4386599999999987  21.4386599999999987  13.8720700000000008
  11.3498800000000006  21.4386599999999987  26.4830499999999986
  26.4830499999999986  21.4386599999999987   8.8276800000000009
  21.4386599999999987  26.4830499999999986   1.2611000000000001
  11.3498800000000006  13.8720700000000008   3.7832900000000000
  18.9164600000000007  11.3498800000000006  29.0052400000000006
   6.3054899999999998   1.2611000000000001  29.0052400000000006
   6.3054899999999998  13.8720700000000008   3.7832900000000000
  13.8720700000000008   3.7832900000000000  11.3498800000000006
   3.7832900000000000  18.9164600000000007   3.7832900000000000
  16.3942699999999988  21.4386599999999987   6.3054899999999998
   3.7832900000000000  16.3942699999999988  16.3942699999999988
  16.3942699999999988   3.7832900000000000   8.8276800000000009
   3.7832900000000000  29.0052400000000006  18.9164600000000007
  21.4386599999999987   6.3054899999999998  21.4386599999999987
   6.3054899999999998  11.3498800000000006  16.3942699999999988
   8.8276800000000009  26.4830499999999986   6.3054899999999998
  18.9164600000000007  21.4386599999999987  21.4386599999999987
   6.3054899999999998  29.0052400000000006  18.9164600000000007
   6.3054899999999998   8.8276800000000009  29.0052400000000006
  18.9164600000000007  29.0052400000000006  26.4830499999999986
   1.2611000000000001   3.7832900000000000  13.8720700000000008
  29.0052400000000006  11.3498800000000006  26.4830499999999986
   3.7832900000000000  21.4386599999999987   3.7832900000000000
  29.0052400000000006  21.4386599999999987   1.2611000000000001
  13.8720700000000008  18.9164600000000007  16.3942699999999988
  26.4830499999999986   8.8276800000000009  29.0052400000000006
   1.2611000000000001  26.4830499999999986   3.7832900000000000
  18.9164600000000007   3.7832900000000000  16.3942699999999988
  26.4830499999999986   6.3054899999999998  11.3498800000000006
   1.2611000000000001   1.2611000000000001  18.9164600000000007
  16.3942699999999988  21.4386599999999987   8.8276800000000009
  29.0052400000000006  23.9608500000000006   8.8276800000000009
   8.8276800000000009  13.8720700000000008  26.4830499999999986
   8.8276800000000009  18.9164600000000007  26.4830499999999986
  23.9608500000000006  11.3498800000000006  21.4386599999999987
  18.9164600000000007  18.9164600000000007  16.3942699999999988
  16.3942699999999988  26.4830499999999986  18.9164600000000007
  11.3498800000000006  26.4830499999999986   3.7832900000000000
  29.0052400000000006   6.3054899999999998   3.7832900000000000
   1.2611000000000001  13.8720700000000008   6.3054899999999998
  26.4830499999999986  21.4386599999999987  11.3498800000000006
  11.3498800000000006  26.4830499999999986  23.9608500000000006
  16.3942699999999988  21.4386599999999987   1.2611000000000001
  11.3498800000000006   6.3054899999999998  26.4830499999999986
  26.4830499999999986  29.0052400000000006  16.3942699999999988
   8.8276800000000009  21.4386599999999987  13.8720700000000008
  23.9608500000000006  26.4830499999999986  23.9608500000000006
  21.4386599999999987  13.8720700000000008   6.3054899999999998
  18.9164600000000007  26.4830499999999986  23.9608500000000006
   6.3054899999999998  21.4386599999999987  29.0052400000000006
  16.3942699999999988  13.8720700000000008  26.4830499999999986
  16.3942699999999988   1.2611000000000001  18.9164600000000007
  23.9608500000000006   3.7832900000000000   3.7832900000000000
  16.3942699999999988  11.3498800000000006  26.4830499999999986
   1.2611000000000001  21.4386599999999987  16.3942699999999988
  21.4386599999999987   1.2611000000000001   1.2611000000000001
  11.3498800000000006   1.2611000000000001   6.3054899999999998
   3.7832900000000000  21.4386599999999987   6.3054899999999998
  18.9164600000000007  29.0052400000000006   1.2611000000000001
  26.4830499999999986   6.3054899999999998   6.3054899999999998
   3.7832900000000000  26.4830499999999986   6.3054899999999998
   1.2611000000000001   3.7832900000000000   8.8276800000000009
   8.8276800000000009   6.3054899999999998  11.3498800000000006
   8.8276800000000009  16.3942699999999988  11.3498800000000006
  18.9164600000000007  23.9608500000000006   1.2611000000000001
  18.9164600000000007  13.8720700000000008   3.7832900000000000
   8.8276800000000009  16.3942699999999988   1.2611000000000001
   3.7832900000000000  26.4830499999999986  13.8720700000000008
   8.8276800000000009  26.4830499999999986  29.0052400000000006
   3.7832900000000000  21.4386599999999987  16.3942699999999988
  29.0052400000000006  18.9164600000000007  16.3942699999999988
   3.7832900000000000  18.9164600000000007   8.8276800000000009
  18.9164600000000007   8.8276800000000009  21.4386599999999987
  18.9164600000000007  26.4830499999999986  29.0052400000000006
  13.8720700000000008  18.9164600000000007   1.2611000000000001
  26.4830499999999986  26.4830499999999986  18.9164600000000007
   8.8276800000000009   1.2611000000000001  18.9164600000000007
  11.3498800000000006  21.4386599999999987  18.9164600000000007
  21.4386599999999987  13.8720700000000008  11.3498800000000006
   3.7832900000000000   6.3054899999999998  16.3942699999999988
  21.4386599999999987  29.0052400000000006  11.3498800000000006
  16.3942699999999988   3.7832900000000000  26.4830499999999986
  16.3942699999999988  18.9164600000000007  18.9164600000000007
   3.7832900000000000   3.7832900000000000  18.9164600000000007
   3.7832900000000000  26.4830499999999986  26.4830499999999986
  21.4386599999999987  18.9164600000000007   1.2611000000000001
   3.7832900000000000  11.3498800000000006  13.8720700000000008
  23.9608500000000006  13.8720700000000008  18.9164600000000007
  29.0052400000000006  26.4830499999999986  11.3498800000000006
  13.8720700000000008  11.3498800000000006  16.3942699999999988
  29.0052400000000006  21.4386599999999987   3.7832900000000000
  18.9164600000000007  26.4830499999999986  16.3942699999999988
   6.3054899999999998  29.0052400000000006  26.4830499999999986
  29.0052400000000006  13.8720700000000008  11.3498800000000006
  26.4830499999999986   6.3054899999999998  13.8720700000000008
  26.4830499999999986   3.7832900000000000   8.8276800000000009
  16.3942699999999988  26.4830499999999986   6.3054899999999998
   3.7832900000000000   1.2611000000000001   8.8276800000000009
   1.2611000000000001   3.7832900000000000  11.3498800000000006
  23.9608500000000006   1.2611000000000001   1.2611000000000001
   8.8276800000000009  16.3942699999999988   6.3054899999999998
  21.4386599999999987   8.8276800000000009  23.9608500000000006
  29.0052400000000006   1.2611000000000001   8.8276800000000009
  11.3498800000000006  18.9164600000000007  16.3942699999999988
  13.8720700000000008  16.3942699999999988   3.7832900000000000
  23.9608500000000006   1.2611000000000001  18.9164600000000007
   1.2611000000000001  13.8720700000000008  23.9608500000000006
  16.3942699999999988  21.4386599999999987  13.8720700000000008
  23.9608500000000006   6.3054899999999998   1.2611000000000001
  29.0052400000000006  23.9608500000000006  26.4830499999999986
  11.3498800000000006   3.7832900000000000   1.2611000000000001
   8.8276800000000009  29.0052400000000006   8.8276800000000009
  13.8720700000000008  11.3498800000000006   8.8276800000000009
  11.3498800000000006  23.9608500000000006   8.8276800000000009
   6.3054899999999998   1.2611000000000001  23.9608500000000006
   6.3054899999999998  26.4830499999999986  26.4830499999999986
  29.0052400000000006  18.9164600000000007   1.2611000000000001
   6.3054899999999998   6.3054899999999998  18.9164600000000007
  13.8720700000000008   6.3054899999999998  23.9608500000000006
  29.0052400000000006   1.2611000000000001  16.3942699999999988
  11.3498800000000006   6.3054899999999998  29.0052400000000006
  29.0052400000000006  26.4830499999999986   6.3054899999999998
  29.0052400000000006  13.8720700000000008   8.8276800000000009
   6.3054899999999998   1.2611000000000001  18.9164600000000007
  18.9164600000000007  18.9164600000000007   1.2611000000000001
   6.3054899999999998  29.0052400000000006  23.9608500000000006
  13.8720700000000008  29.0052400000000006   6.3054899999999998
  11.3498800000000006   6.3054899999999998  23.9608500000000006
   6.3054899999999998   1.2611000000000001  13.8720700000000008
  13.8720700000000008  26.4830499999999986  23.9608500000000006
   6.3054899999999998  11.3498800000000006  13.8720700000000008
  11.3498800000000006  18.9164600000000007  23.9608500000000006
  13.8720700000000008  16.3942699999999988   8.8276800000000009
  11.3498800000000006   1.2611000000000001   1.2611000000000001
  21.4386599999999987   8.8276800000000009  18.9164600000000007
  16.3942699999999988  26.4830499999999986  26.4830499999999986
  26.4830499999999986  26.4830499999999986  21.4386599999999987
   8.8276800000000009   3.7832900000000000  18.9164600000000007
  16.3942699999999988  29.0052400000000006  23.9608500000000006
  26.4830499999999986   8.8276800000000009   8.8276800000000009
   6.3054899999999998  18.9164600000000007  11.3498800000000006
   8.8276800000000009  26.4830499999999986  23.9608500000000006
  23.9608500000000006  16.3942699999999988  11.3498800000000006
  23.9608500000000006   8.8276800000000009  18.9164600000000007
  29.0052400000000006  18.9164600000000007  29.0052400000000006
  23.9608500000000006   1.2611000000000001  13.8720700000000008
   1.2611000000000001  16.3942699999999988  23.9608500000000006
  26.4830499999999986  11.3498800000000006  29.0052400000000006
   8.8276800000000009  16.3942699999999988   8.8276800000000009
  13.8720700000000008  29.0052400000000006   8.8276800000000009
   6.3054899999999998  13.8720700000000008  13.8720700000000008
  26.4830499999999986  23.9608500000000006  18.9164600000000007
   3.7832900000000000  13.8720700000000008  26.4830499999999986
  26.4830499999999986   8.8276800000000009   3.7832900000000000
   3.7832900000000000   1.2611000000000001  18.9164600000000007
   3.7832900000000000   8.8276800000000009   1.2611000000000001
  13.8720700000000008  13.8720700000000008   6.3054899999999998
  21.4386599999999987  23.9608500000000006  11.3498800000000006
  13.8720700000000008   8.8276800000000009  26.4830499999999986
  11.3498800000000006  11.3498800000000006   3.7832900000000000
  21.4386599999999987   8.8276800000000009   1.2611000000000001
  13.8720700000000008   8.8276800000000009  23.9608500000000006
  23.9608500000000006  26.4830499999999986  26.4830499999999986
   3.7832900000000000  18.9164600000000007  26.4830499999999986
  26.4830499999999986   6.3054899999999998  26.4830499999999986
  16.3942699999999988  18.9164600000000007   3.7832900000000000
  16.3942699999999988   8.8276800000000009   8.8276800000000009
  16.3942699999999988  29.0052400000000006   1.2611000000000001
   6.3054899999999998  26.4830499999999986   3.7832900000000000
  29.0052400000000006   8.8276800000000009  18.9164600000000007
  29.0052400000000006  16.3942699999999988   6.3054899999999998
  18.9164600000000007  21.4386599999999987  29.0052400000000006
  26.4830499999999986   8.8276800000000009  16.3942699999999988
  26.4830499999999986  23.9608500000000006  26.4830499999999986
  23.9608500000000006  16.3942699999999988   3.7832900000000000
  29.0052400000000006   3.7832900000000000   1.2611000000000001
  18.9164600000000007   3.7832900000000000  26.4830499999999986
  13.8720700000000008   1.2611000000000001   1.2611000000000001
  11.3498800000000006  13.8720700000000008  26.4830499999999986
  18.9164600000000007   3.7832900000000000   3.7832900000000000
   8.8276800000000009   8.8276800000000009   1.2611000000000001
  18.9164600000000007  11.3498800000000006  18.9164600000000007
   8.8276800000000009  13.8720700000000008  21.4386599999999987
  21.4386599999999987   6.3054899999999998  13.8720700000000008
  26.4830499999999986   1.2611000000000001  13.8720700000000008
   6.3054899999999998  23.9608500000000006   8.8276800000000009
   8.8276800000000009   3.7832900000000000   1.2611000000000001
   1.2611000000000001  23.9608500000000006   8.8276800000000009
   1.2611000000000001  26.4830499999999986  18.9164600000000007
  13.8720700000000008   6.3054899999999998  16.3942699999999988
  11.3498800000000006  29.0052400000000006  29.0052400000000006